32
HF_K020_.xyz
 N    -2.09244    2.15484    0.21862
 C    -1.78695    0.97885   -0.30196
 C    -2.69773    0.32350   -1.13401
 C    -3.88465    0.97393   -1.38582
 N    -4.17729    2.15525   -0.87049
 C    -3.26360    2.67950   -0.08840
 C    -4.94291    0.36580   -2.27264
 O    -5.98052    0.87015   -2.52522
 O    -4.57588   -0.82016   -2.74963
 C    -0.46503    0.40157    0.04972
 C     0.12870   -0.60169   -0.69899
 C     1.36382   -1.12213   -0.35099
 C     2.03513   -0.65197    0.76767
 C     1.44190    0.36531    1.52021
 C     0.22086    0.88500    1.16438
 Cl    2.25455    0.98351    2.92541
 O     3.22978   -1.09893    1.17284
 C     3.81557   -2.21322    0.56767
 C     4.59198   -1.99914   -0.73946
 O     5.76064   -2.54849   -0.15580
 C     5.18889   -2.54773    1.14421
 H    -2.50665   -0.64381   -1.54684
 H    -3.48919    3.63614    0.34687
 H    -5.27794   -1.15065   -3.29431
 H    -0.34814   -0.98185   -1.58300
 H     1.79962   -1.88711   -0.96342
 H    -0.21137    1.66982    1.75228
 H     3.12165   -3.04493    0.55001
 H     4.26898   -2.55813   -1.61059
 H     4.71308   -0.95188   -0.99674
 H     5.58421   -1.75426    1.76779
 H     5.29702   -3.50282    1.64284
