23
HF_K089_.xyz
 N     0.02703    1.97551    0.55644
 C    -0.07624    0.70331    0.21019
 C    -1.33127    0.14350   -0.03691
 C    -2.41524    0.98509    0.08790
 N    -2.30268    2.25781    0.42390
 C    -1.08201    2.68381    0.64512
 C    -3.82150    0.49532   -0.15528
 O    -4.78736    1.17378   -0.10351
 O    -3.85781   -0.80200   -0.43917
 C     1.19822   -0.06202    0.14592
 C     2.31275    0.40103    0.84994
 C     3.52051   -0.26431    0.83422
 C     3.62196   -1.41831    0.08386
 C     2.56410   -1.91703   -0.64011
 C     1.37287   -1.22498   -0.59109
 F     0.37043   -1.71568   -1.31071
 F     4.77279   -2.06933    0.05409
 H    -1.45799   -0.88150   -0.30346
 H    -0.97109    3.71552    0.92595
 H    -4.76108   -1.04979   -0.58515
 H     2.21046    1.30532    1.41661
 H     4.36964    0.09379    1.38395
 H     2.65614   -2.80818   -1.22929
