23
HF_K011_.xyz
 N    -0.60701    1.83893    0.27699
 C    -0.69459    0.56767   -0.07271
 C    -1.93880   -0.00204   -0.34632
 C    -3.03291    0.82980   -0.25284
 N    -2.93597    2.10296    0.08561
 C    -1.72422    2.53818    0.33933
 C    -4.42941    0.32877   -0.52806
 O    -5.40628    0.98840   -0.45741
 O    -4.44149   -0.95716   -0.86522
 C     0.57280   -0.20777   -0.14113
 C     0.67686   -1.38295   -0.87787
 C     1.86597   -2.08512   -0.92443
 C     2.95636   -1.61195   -0.22854
 C     2.87929   -0.44307    0.50631
 C     1.69141    0.25821    0.54338
 Cl    4.26716    0.13024    1.36983
 F     4.08819   -2.28753   -0.27267
 H    -2.05642   -1.03459   -0.59696
 H    -1.62926    3.57015    0.62448
 H    -5.34017   -1.21508   -1.02261
 H    -0.15918   -1.75290   -1.44063
 H     1.96538   -2.98927   -1.49471
 H     1.63038    1.16940    1.10408
