26
HF_K051_.xyz
 N     2.38094    0.73136    0.20441
 C     1.05743    0.74403    0.24506
 C     0.33043    1.94207    0.29156
 C     1.11869    3.08507    0.19769
 N     2.43493    3.06631    0.11286
 C     3.00617    1.88465    0.14850
 C     0.53109    4.47566    0.22416
 O    -0.23369    4.86255    1.04589
 O     0.97561    5.22334   -0.76582
 C    -1.17403    2.00432    0.44758
 C     0.42679   -0.61057    0.25915
 C     0.93059   -1.59065    1.10805
 C     0.38452   -2.85599    1.11515
 C    -0.66015   -3.17578    0.26029
 C    -1.15324   -2.21258   -0.60396
 C    -0.61117   -0.93675   -0.59748
 Cl   -2.44221   -2.55148   -1.71355
 Cl   -1.30672   -4.78204    0.30513
 H     4.08018    1.85838    0.11811
 H     0.61126    6.09423   -0.67250
 H    -1.45523    2.84510    1.06173
 H    -1.66857    2.11311   -0.51377
 H    -1.54964    1.10381    0.91158
 H     1.75221   -1.35913    1.75856
 H     0.76492   -3.60949    1.77812
 H    -1.00107   -0.21372   -1.28717
