34
HF_K054_.xyz
 N    -2.22468    1.98125    0.22355
 C    -1.77584    0.90028   -0.39151
 C    -2.53553    0.30621   -1.40330
 C    -3.72911    0.91373   -1.71982
 N    -4.16488    2.00092   -1.10688
 C    -3.38746    2.47211   -0.16099
 C    -4.63118    0.36376   -2.79681
 O    -5.66906    0.83214   -3.11079
 O    -4.12465   -0.72547   -3.36768
 C    -0.46516    0.36036    0.04685
 C     0.27721   -0.51193   -0.73358
 C     1.49855   -1.00097   -0.30384
 C     2.01095   -0.63246    0.93262
 C     1.26572    0.25393    1.71744
 C     0.05869    0.74391    1.28181
 Cl    1.87186    0.74578    3.27062
 O     3.17304   -1.05995    1.42842
 C     3.94545   -2.02082    0.75679
 C     4.83723   -1.56664   -0.41345
 C     5.95862   -2.44969    0.17870
 C     5.20246   -2.42983    1.52600
 H    -2.22813   -0.58718   -1.90306
 H    -3.73028    3.35100    0.35454
 H    -4.73459   -1.02333   -4.02950
 H    -0.07095   -0.81017   -1.70490
 H     2.05230   -1.65999   -0.94218
 H    -0.48867    1.42710    1.89983
 H     3.33029   -2.87707    0.49930
 H     4.50532   -1.77148   -1.42471
 H     5.06787   -0.51133   -0.32080
 H     6.96329   -2.04739    0.16755
 H     5.97622   -3.43841   -0.26637
 H     5.53088   -1.61296    2.15736
 H     5.15918   -3.33991    2.11137
