26
HF_K053_.xyz
 N    -2.22875    0.66262   -0.42371
 C    -0.92544    0.66780   -0.21490
 C    -0.24052    1.86974   -0.04627
 C    -1.00542    3.01176   -0.09093
 N    -2.31021    3.00152   -0.28796
 C    -2.87263    1.82031   -0.45287
 C    -4.35647    1.77039   -0.67755
 C    -0.31437    4.33956    0.08679
 O     0.85734    4.42741    0.26843
 O    -1.12111    5.37599    0.02291
 C    -0.24164   -0.65460   -0.18796
 C    -0.84185   -1.75807   -0.78736
 C    -0.21518   -2.98523   -0.77670
 C     1.01660   -3.14141   -0.15867
 C     1.61670   -2.05187    0.45163
 C     0.98784   -0.81788    0.43252
 Cl    3.14743   -2.18259    1.25579
 Cl    1.75872   -4.70573   -0.17128
 H     0.81835    1.93419    0.09031
 H    -4.58154    1.16555   -1.54811
 H    -4.84064    1.30699    0.17597
 H    -4.74941    2.76791   -0.81057
 H    -0.60424    6.16143    0.14519
 H    -1.79801   -1.64648   -1.25928
 H    -0.67401   -3.83439   -1.24611
 H     1.47098    0.00043    0.92935
