35
HF_K104_.xyz
 N     2.97628   -1.66517   -1.66942
 C     1.84832   -0.98813   -1.24709
 C     1.31692    0.06780   -2.00529
 C     0.19918    0.76821   -1.61567
 C    -0.45932    0.46879   -0.42773
 C    -1.64659    1.24894   -0.00825
 N    -2.24204    1.99086   -0.92808
 C    -3.30052    2.68995   -0.56626
 N    -3.84510    2.73302    0.62646
 C    -3.25041    2.00270    1.55471
 C    -2.13584    1.23681    1.30172
 C    -3.86764    2.06353    2.92988
 O    -4.81943    2.70350    3.21356
 O    -3.21544    1.30574    3.80638
 C     0.02758   -0.59401    0.31971
 C     1.13348   -1.31476   -0.08373
 Cl    1.53023   -2.71719    0.88570
 C     4.07069   -2.04751   -0.76017
 C     5.31984   -2.02058   -1.64409
 C     4.76063   -2.30259   -3.03747
 C     3.47917   -1.48128   -3.02575
 H     1.79890    0.35292   -2.91815
 H    -0.16416    1.56966   -2.22921
 H    -3.76648    3.28374   -1.33205
 H    -1.66740    0.67961    2.08450
 H    -3.64755    1.38526    4.64636
 H    -0.47160   -0.91386    1.21360
 H     3.91061   -3.04031   -0.36351
 H     4.14092   -1.36214    0.07729
 H     5.77879   -1.03613   -1.62478
 H     6.06248   -2.73996   -1.31939
 H     5.42953   -2.01317   -3.83960
 H     4.53018   -3.35774   -3.14903
 H     3.72001   -0.43941   -3.23854
 H     2.74583   -1.81089   -3.75337
