26
HF_K041_.xyz
 N    -1.37477    2.32558    0.19134
 C    -1.47656    1.03592   -0.07421
 C    -2.72431    0.45265   -0.28574
 C    -3.81517    1.29372   -0.22362
 N    -3.70570    2.58467    0.02915
 C    -2.48807    3.03264    0.22979
 C    -5.21898    0.78228   -0.43621
 O    -6.19111    1.45052   -0.38904
 O    -5.24082   -0.52263   -0.68686
 C    -0.21195    0.24918   -0.11718
 C    -0.11418   -0.93877   -0.82508
 C     1.07506   -1.64477   -0.84146
 C     2.18648   -1.18825   -0.15359
 C     2.08483    0.00889    0.55140
 C     0.90437    0.72164    0.56495
 Cl    3.42699    0.66299    1.44268
 C     3.46331   -1.99537   -0.19413
 F     3.31197   -3.08774   -0.92694
 F     4.46254   -1.31318   -0.72122
 F     3.83673   -2.38784    1.00956
 H    -2.84660   -0.59397   -0.46693
 H    -2.38516    4.08082    0.44338
 H    -6.14282   -0.78829   -0.80866
 H    -0.94745   -1.31577   -1.38715
 H     1.14007   -2.55810   -1.39860
 H     0.84658    1.64574    1.10365
