23
HF_K065_.xyz
 N    -0.59101    2.13766    0.48909
 C    -0.67251    0.86567    0.14293
 C    -1.91028    0.28369   -0.12570
 C    -3.01153    1.10772   -0.03119
 N    -2.92197    2.38178    0.30292
 C    -1.71308    2.82889    0.55169
 C    -4.40539    0.59512   -0.29950
 O    -5.38618    1.24860   -0.22806
 O    -4.40743   -0.69170   -0.63069
 C     0.60296    0.09833    0.07484
 C     1.70202    0.54420    0.80136
 C     2.88185   -0.16848    0.75076
 C     3.00715   -1.31358   -0.01541
 C     1.90974   -1.73467   -0.74018
 C     0.71213   -1.04685   -0.70429
 Cl    2.04287   -3.16229   -1.72635
 Cl    4.25214    0.38127    1.67099
 H    -2.01857   -0.75101   -0.37252
 H    -1.62594    3.86256    0.83266
 H    -5.30370   -0.95948   -0.78544
 H     1.62755    1.43440    1.39247
 H     3.93112   -1.85640   -0.04865
 H    -0.10830   -1.39750   -1.29893
