33
HF_K044_.xyz
 N    -1.72727    2.07843   -0.07684
 C    -1.52617    0.79561   -0.32561
 C    -2.60518   -0.03432   -0.63842
 C    -3.84704    0.55801   -0.69065
 N    -4.03759    1.84363   -0.45181
 C    -2.96294    2.53429   -0.15134
 C    -5.08561   -0.23750   -1.02083
 O    -6.17825    0.20813   -1.07290
 O    -4.81189   -1.51817   -1.25219
 C    -0.13063    0.29406   -0.24108
 C     0.26661   -0.89262   -0.84771
 C     1.57109   -1.33305   -0.75420
 C     2.51764   -0.61012   -0.03918
 C     2.12090    0.58291    0.55910
 C     0.82128    1.03353    0.45224
 Cl    3.27205    1.53443    1.44908
 O     3.80285   -0.99523    0.03033
 C     4.13378   -2.27226    0.57850
 C     5.57148   -2.53430    0.17002
 C     3.93582   -2.27513    2.08693
 H    -2.49180   -1.08296   -0.81188
 H    -3.10138    3.58009    0.05542
 H    -5.62488   -1.96358   -1.45089
 H    -0.42823   -1.47093   -1.42758
 H     1.87135   -2.23238   -1.25837
 H     0.54134    1.95968    0.91291
 H     3.49093   -3.02353    0.12982
 H     6.22376   -1.77282    0.58296
 H     5.89589   -3.50373    0.53371
 H     5.66800   -2.51804   -0.90929
 H     2.90564   -2.05974    2.34930
 H     4.18753   -3.24986    2.49299
 H     4.56998   -1.52950    2.55277
