23
HF_K004_.xyz
 N     0.07113    1.69548    0.31142
 C    -0.01054    0.41335    0.00311
 C    -1.25258   -0.17406   -0.24137
 C    -2.35219    0.65208   -0.16548
 N    -2.26142    1.93648    0.13048
 C    -1.05089    2.38845    0.35930
 C    -3.74701    0.13263   -0.41100
 O    -4.72850    0.78721   -0.35369
 O    -3.75308   -1.16399   -0.70487
 C     1.26086   -0.35956   -0.04970
 C     1.36892   -1.53092   -0.79282
 C     2.56318   -2.23119   -0.82276
 C     3.66147   -1.78060   -0.11234
 C     3.53493   -0.61524    0.61364
 C     2.36555    0.10644    0.65642
 F     4.58422   -0.17224    1.29897
 H    -1.36116   -1.21548   -0.45697
 H    -0.96147    3.43001    0.60938
 H    -4.65135   -1.43245   -0.84561
 H     0.53794   -1.89086   -1.36972
 H     2.63991   -3.13054   -1.40646
 H     4.59739   -2.30718   -0.11697
 H     2.31387    1.01313    1.22571
