40
HF_K105_.xyz
 N    -2.67829    2.17927   -0.82298
 C    -2.35588    0.90668   -0.66529
 C    -3.33238   -0.08365   -0.80773
 C    -4.60988    0.34184   -1.09068
 N    -4.92530    1.61770   -1.23590
 C    -3.93579    2.46795   -1.09955
 C    -5.74522   -0.63644   -1.26256
 O    -6.86098   -0.33738   -1.50956
 O    -5.35068   -1.89661   -1.10279
 C    -0.94009    0.59535   -0.35133
 C    -0.54657   -0.62170    0.18267
 C     0.78041   -0.88901    0.46963
 C     1.76421    0.06050    0.22213
 C     1.36448    1.29199   -0.31080
 C     0.04464    1.55524   -0.58508
 Cl    2.55663    2.51554   -0.63583
 O     3.06702   -0.10588    0.44447
 C     3.61603   -1.29943    0.98248
 C     5.07444   -1.33309    0.54376
 C     5.79754   -2.55053    1.12725
 C     5.67562   -2.59976    2.65266
 C     4.21056   -2.54232    3.09307
 C     3.49545   -1.32151    2.50435
 H    -3.11028   -1.12573   -0.72315
 H    -4.17179    3.50952   -1.22289
 H    -6.10349   -2.45972   -1.22471
 H    -1.27162   -1.38139    0.40820
 H     1.03710   -1.83818    0.89504
 H    -0.23124    2.50989   -0.98621
 H     3.10425   -2.15578    0.55195
 H     5.12077   -1.33785   -0.54034
 H     5.55303   -0.41652    0.87872
 H     6.84241   -2.52881    0.83277
 H     5.37633   -3.46110    0.70274
 H     6.21279   -1.75667    3.08385
 H     6.14650   -3.50012    3.03710
 H     4.14227   -2.51685    4.17646
 H     3.70195   -3.45127    2.77315
 H     3.94273   -0.40763    2.88754
 H     2.45299   -1.31121    2.80614
