27
HF_K083_.xyz
 N    -0.57323    2.39145    0.91692
 C    -0.59013    1.13779    0.48691
 C    -1.80997    0.52481    0.19587
 C    -2.93952    1.31687    0.30124
 N    -2.90036    2.57122    0.69863
 C    -1.71147    3.04008    1.01146
 C    -4.29789    0.79339   -0.09183
 O    -4.90608    1.18763   -1.02466
 O    -4.74017   -0.13959    0.73818
 O    -1.92526   -0.75357   -0.23476
 C    -1.90438   -1.76063    0.76598
 C     0.73615    0.47169    0.35179
 C     1.77243    0.84880    1.20162
 C     3.01726    0.26946    1.08554
 C     3.25922   -0.68490    0.10888
 C     2.23855   -1.05387   -0.75242
 C     0.98361   -0.48017   -0.62720
 Cl    2.48120   -2.22941   -2.00482
 Cl    4.84189   -1.37959    0.00310
 H    -1.66565    4.05437    1.36287
 H    -5.59714   -0.42258    0.44401
 H    -0.96559   -1.74823    1.30580
 H    -2.72888   -1.62625    1.45283
 H    -2.00848   -2.70200    0.24742
 H     1.59876    1.59957    1.94754
 H     3.81364    0.55368    1.74652
 H     0.21089   -0.78032   -1.30508
