30
HF_K075_.xyz
 N    -0.30185    2.57354   -0.00562
 C    -0.38080    1.24972    0.05693
 C    -1.60869    0.59589    0.16595
 C    -2.71910    1.43709    0.13871
 N    -2.63732    2.74694    0.05320
 C    -1.42258    3.25344   -0.00201
 C    -4.13617    0.91759    0.21924
 O    -4.89733    1.20748    1.07556
 O    -4.43351    0.15109   -0.81733
 C    -1.78037   -0.90312    0.36558
 O    -2.82619   -1.19205    1.24089
 C    -2.53873   -1.02617    2.60238
 C     0.93424    0.54417    0.00973
 C     1.99313    1.01262    0.78127
 C     3.22025    0.38790    0.73322
 C     3.42285   -0.70280   -0.10060
 C     2.38146   -1.16125   -0.88958
 C     1.14421   -0.53791   -0.82869
 Cl    2.57275   -2.50293   -1.97069
 Cl    4.98584   -1.44784   -0.12571
 H    -1.34481    4.32416   -0.05435
 H    -5.31982   -0.17019   -0.71174
 H    -2.03445   -1.37901   -0.57300
 H    -0.85469   -1.33830    0.72411
 H    -1.72557   -1.68005    2.90875
 H    -2.27477    0.00068    2.83806
 H    -3.43253   -1.28867    3.14915
 H     1.85199    1.86807    1.41373
 H     4.03488    0.74104    1.33622
 H     0.36054   -0.89781   -1.46749
