23
HF_K002_.xyz
 N    -0.16579    2.11463    0.57279
 C    -0.23536    0.83684    0.24257
 C    -1.47121    0.24493   -0.02082
 C    -2.57781    1.06101    0.06419
 N    -2.49920    2.34004    0.38485
 C    -1.29339    2.79746    0.62747
 C    -3.96707    0.53515   -0.20078
 O    -4.95372    1.18078   -0.13532
 O    -3.95991   -0.75455   -0.52206
 C     1.04360    0.07961    0.18244
 C     2.16120    0.55895    0.85633
 C     3.35849   -0.13488    0.82218
 C     3.44232   -1.30491    0.10382
 C     2.34212   -1.78283   -0.57759
 C     1.14867   -1.10501   -0.54424
 F     2.45030   -2.90431   -1.27361
 F     4.57535   -1.98298    0.05341
 H    -1.57330   -0.79249   -0.25812
 H    -1.21374    3.83458    0.89844
 H    -4.85432   -1.02875   -0.67599
 H     2.08869    1.47592    1.40664
 H     4.22737    0.21953    1.34419
 H     0.32916   -1.50775   -1.10779
