26
HF_K014_.xyz
 N    -0.39578    1.93555    0.37816
 C    -0.49318    0.66889    0.00963
 C    -1.74097    0.13437   -0.32475
 C    -2.81783    0.98947   -0.26999
 N    -2.70861    2.25763    0.08759
 C    -1.49918    2.65866    0.39946
 C    -4.21135    0.52379   -0.61139
 O    -5.17685    1.20376   -0.57591
 O    -4.23991   -0.75805   -0.96434
 C     0.75501   -0.13773   -0.00951
 C     1.83888    0.27734    0.75032
 C     2.99778   -0.48698    0.73782
 C     3.05024   -1.63615   -0.03932
 C     1.99441   -2.07010   -0.81876
 C     0.84889   -1.30447   -0.78820
 O     4.25058   -2.23080    0.08114
 C     4.97655   -1.46753    0.93684
 C     4.29895   -0.40650    1.37495
 H    -1.87115   -0.89261   -0.59076
 H    -1.39290    3.68521    0.70104
 H    -5.13720   -0.99024   -1.16325
 H     1.76781    1.17518    1.33298
 H     2.06955   -2.95527   -1.42167
 H     0.01983   -1.60521   -1.40086
 H     5.96735   -1.81535    1.13542
 H     4.65424    0.34063    2.05349
