27
HF_K012_.xyz
 N    -0.97706    1.93674    0.14764
 C    -0.95954    0.64552   -0.13302
 C    -2.15558   -0.04030   -0.35494
 C    -3.31471    0.69974   -0.28635
 N    -3.32265    1.99337   -0.01659
 C    -2.14904    2.54151    0.19224
 C    -4.66676    0.06875   -0.51006
 O    -5.69585    0.64585   -0.45710
 O    -4.57471   -1.23025   -0.77879
 C     0.36652   -0.02503   -0.18231
 C     0.55785   -1.23127   -0.84786
 C     1.80189   -1.82960   -0.87481
 C     2.88374   -1.24382   -0.23674
 C     2.69502   -0.03331    0.42054
 C     1.45554    0.57306    0.44279
 Cl    4.03450    0.74395    1.21194
 O     4.09888   -1.82743   -0.30147
 C     4.40473   -2.74448    0.72852
 H    -2.18767   -1.09077   -0.55008
 H    -2.13820    3.59180    0.42078
 H    -5.45063   -1.56939   -0.90737
 H    -0.25201   -1.70281   -1.37227
 H     1.95954   -2.74994   -1.40641
 H     1.33078    1.51222    0.94347
 H     5.40191   -3.10763    0.52895
 H     4.38270   -2.26251    1.69873
 H     3.70765   -3.57635    0.72246
