23
HF_K008_.xyz
 N    -0.61830    2.47110    0.68543
 C    -0.69794    1.19519    0.35155
 C    -1.93641    0.61061    0.08815
 C    -3.03794    1.43445    0.17439
 N    -2.94977    2.71219    0.49616
 C    -1.74121    3.16174    0.74087
 C    -4.43120    0.91845   -0.09007
 O    -5.41276    1.57159   -0.02459
 O    -4.43243   -0.37120   -0.41031
 C     0.57774    0.43087    0.29203
 C     1.68994    0.88417    0.99548
 C     2.87401    0.18039    0.95688
 C     2.97838   -0.98236    0.20783
 C     1.88059   -1.43429   -0.50665
 C     0.68959   -0.72879   -0.45999
 Cl    1.94825   -2.86986   -1.47692
 Cl    4.48986   -1.82603    0.19154
 H    -2.04456   -0.42637   -0.14905
 H    -1.65491    4.19826    1.01177
 H    -5.32854   -0.64055   -0.56325
 H     1.61950    1.78684    1.56986
 H     3.72940    0.52494    1.50598
 H    -0.13450   -1.09468   -1.04062
