23
HF_K045_.xyz
 N     2.38883   -0.68103   -0.78859
 C     1.12465   -0.66613   -0.39442
 C     0.51814   -1.87799   -0.08834
 C     1.26042   -3.03347   -0.17569
 N     2.52405   -3.01049   -0.54753
 C     3.02276   -1.83145   -0.84820
 C     0.68576   -4.38484    0.16820
 O     1.18328   -5.12385    0.94363
 O    -0.42001   -4.64094   -0.50694
 F    -0.74799   -1.94277    0.29699
 C     0.44494    0.65595   -0.33763
 C     0.92937    1.69112   -1.13384
 C     0.33608    2.93347   -1.10148
 C    -0.74345    3.17528   -0.26482
 C    -1.22423    2.15561    0.54026
 C    -0.63478    0.90248    0.49861
 Cl   -2.56030    2.39637    1.61866
 Cl   -1.44945    4.75516   -0.25912
 H     4.04742   -1.80476   -1.16893
 H    -0.74479   -5.49546   -0.25196
 H     1.77183    1.51701   -1.77363
 H     0.70453    3.72819   -1.72149
 H    -1.02880    0.13804    1.13496
