23
HF_K081_.xyz
 N    -0.06531    2.33026    0.57347
 C    -0.13110    1.02832    0.35580
 C    -1.36663    0.40119    0.19583
 C    -2.47953    1.21204    0.26487
 N    -2.40603    2.51447    0.47071
 C    -1.19817    3.00466    0.61848
 C    -3.87162    0.65163    0.10716
 O    -4.86023    1.29825    0.11545
 O    -3.86423   -0.66768   -0.04467
 C     1.17081    0.30188    0.34217
 C     2.25188    0.82377    1.04980
 C     3.47236    0.17922    1.06957
 C     3.64700   -1.00166    0.36861
 C     2.59298   -1.53008   -0.35060
 C     1.37309   -0.87942   -0.35688
 F     0.38821   -1.40353   -1.06976
 Cl    2.78988   -2.99871   -1.24981
 H    -1.45818   -0.64943    0.03305
 H    -1.12084    4.06250    0.79247
 H    -4.75971   -0.96238   -0.14406
 H     2.11448    1.74433    1.58191
 H     4.29075    0.59402    1.62820
 H     4.59065   -1.51367    0.37173
