26
HF_K063_.xyz
 N     0.16871    1.65951    0.44196
 C     0.07160    0.40281    0.04318
 C    -1.17424   -0.12846   -0.30033
 C    -2.25407    0.72136   -0.22060
 N    -2.14613    1.98068    0.16703
 C    -0.93693    2.37896    0.48358
 C    -3.64750    0.26030   -0.56744
 O    -4.61529    0.93533   -0.50768
 O    -3.67281   -1.01137   -0.95568
 C     1.31982   -0.40488   -0.00353
 C     1.43334   -1.51336   -0.83663
 C     2.60737   -2.24304   -0.85770
 C     3.66982   -1.87933   -0.04825
 C     3.57924   -0.77465    0.79010
 C     2.39997   -0.04345    0.79471
 C     4.72637   -0.38701    1.69385
 H    -1.29796   -1.14950   -0.59199
 H    -0.83310    3.39859    0.80834
 H    -4.57018   -1.24175   -1.15611
 H     0.62684   -1.79525   -1.48821
 H     2.69743   -3.09195   -1.51184
 H     4.57854   -2.45583   -0.07384
 H     2.30902    0.82241    1.42338
 H     4.78726    0.68918    1.81026
 H     4.60330   -0.81844    2.68367
 H     5.67352   -0.73608    1.29840
