31
HF_K007_.xyz
 C    -2.14191   -0.55128   -0.10749
 C    -2.39489   -1.89237   -0.39445
 C    -1.35604   -2.76119   -0.65386
 C    -0.04591   -2.31682   -0.63101
 C     0.22436   -0.99045   -0.33501
 C    -0.82789   -0.11390   -0.07940
 C     1.63500   -0.51739   -0.29654
 C     2.03361    0.58882    0.45547
 C     3.36860    0.92422    0.40291
 N     4.24826    0.24326   -0.30941
 C     3.77667   -0.79005   -0.96723
 N     2.52346   -1.20152   -0.99614
 C     3.91731    2.10008    1.17228
 O     5.05066    2.43234    1.17606
 O     2.97128    2.73523    1.85803
 Cl   -4.02832   -2.47818   -0.43476
 O    -3.20547    0.23682    0.12328
 C    -3.02033    1.56745    0.47729
 C    -2.84028    2.57845   -0.60618
 C    -4.14325    2.47155    0.13887
 H    -1.57723   -3.78858   -0.87351
 H     0.75914   -2.99298   -0.84023
 H    -0.63241    0.92198    0.10852
 H     1.35143    1.14291    1.06415
 H     4.48199   -1.35896   -1.54547
 H     3.37539    3.45688    2.32140
 H    -2.50523    1.69988    1.41377
 H    -2.20371    3.42557   -0.41836
 H    -2.81957    2.21110   -1.61649
 H    -4.97404    2.02974   -0.38008
 H    -4.40256    3.24355    0.84103
