22
HF_K111_.xyz
 N     0.45438    1.68513    0.36874
 C     0.38162    0.39466    0.09214
 C    -0.85943   -0.21416   -0.10330
 C    -1.96733    0.59882   -0.01398
 N    -1.88617    1.89025    0.25338
 C    -0.67581    2.36279    0.43754
 C    -3.36137    0.05590   -0.20941
 O    -4.34987    0.69801   -0.13681
 O    -3.35808   -1.24642   -0.47770
 C     1.65737   -0.35957    0.01650
 C     1.78157   -1.55290   -0.68318
 C     3.00308   -2.19763   -0.70660
 C     4.05972   -1.62320   -0.02285
 N     3.96115   -0.48783    0.64603
 C     2.79556    0.12643    0.65818
 H    -0.96091   -1.26143   -0.29393
 H    -0.59358    3.41067    0.66247
 H    -4.25626   -1.52937   -0.58703
 H     0.94890   -1.96884   -1.22084
 H     3.13641   -3.11769   -1.24443
 H     5.02608   -2.09700   -0.01696
 H     2.74178    1.04971    1.20315
