37
HF_K086_.xyz
 N    -2.16443    2.22777   -0.78610
 C    -1.98795    0.92590   -0.63618
 C    -3.08291    0.06006   -0.71060
 C    -4.30884    0.63153   -0.96352
 N    -4.47405    1.93354   -1.12311
 C    -3.38831    2.66234   -1.01864
 C    -5.56006   -0.20453   -1.06888
 O    -6.64104    0.22363   -1.27744
 O    -5.31348   -1.50057   -0.89982
 C    -0.60668    0.45021   -0.37849
 C    -0.23100   -0.87284   -0.55051
 C     1.06410   -1.29339   -0.30366
 C     2.03062   -0.39331    0.12753
 C     1.65056    0.94304    0.29935
 C     0.36555    1.35628    0.04594
 CL    2.82386    2.10746    0.83980
 O     3.30248   -0.69904    0.37876
 C     3.80239   -2.02592    0.27330
 C     5.31896   -1.91496    0.34988
 C     5.60989   -1.69010    1.84362
 C     4.42902   -2.35282    2.60075
 C     3.44980   -2.84661    1.51388
 H    -2.99282   -0.99455   -0.56218
 H    -3.50475    3.72449   -1.13723
 H    -6.13385   -1.96971   -0.97454
 H    -0.93762   -1.60256   -0.89950
 H     1.31220   -2.32535   -0.45083
 H     0.10651    2.38779    0.17709
 H     3.46408   -2.46615   -0.65734
 H     5.74576   -2.85583    0.01248
 H     5.69800   -1.12671   -0.28874
 H     5.64351   -0.62880    2.05738
 H     6.56874   -2.10643    2.13143
 H     3.94399   -1.63267    3.24883
 H     4.75690   -3.17300    3.22957
 H     2.41101   -2.74760    1.80527
 H     3.62495   -3.89526    1.28782
