23
HF_K001_.xyz
 N    -0.00734    2.27606    0.76336
 C    -0.10713    0.99897    0.43799
 C    -1.35745    0.42453    0.20962
 C    -2.44750    1.26007    0.32998
 N    -2.33979    2.53840    0.64369
 C    -1.12086    2.97826    0.84811
 C    -3.85239    0.75666    0.10721
 O    -4.82200    1.42982    0.15527
 O    -3.88061   -0.54534   -0.15302
 C     1.17324    0.23717    0.38248
 C     2.25700    0.66577    1.14638
 C     3.45780   -0.01485    1.12978
 C     3.60983   -1.13836    0.33547
 C     2.55309   -1.57327   -0.44017
 C     1.35282   -0.88775   -0.40958
 F     0.36517   -1.32093   -1.17758
 Cl    2.72236   -2.96766   -1.45569
 H    -1.47656   -0.60593   -0.04071
 H    -1.01591    4.01539    1.11011
 H    -4.78251   -0.80382   -0.28879
 H     2.13745    1.54287    1.75125
 H     4.27844    0.32732    1.73257
 H     4.53806   -1.67719    0.30936
