31
HF_K006_.xyz
 N    -0.79746    2.24590   -1.55281
 C    -1.04903    1.15315   -0.85138
 C    -2.37003    0.76834   -0.60716
 C    -3.35668    1.58635   -1.10924
 N    -3.09598    2.68276   -1.80012
 C    -1.82526    2.94867   -1.98890
 C    -4.81835    1.27283   -0.90551
 O    -5.71093    1.92902   -1.31563
 O    -4.99813    0.15940   -0.20191
 C     0.11689    0.37273   -0.36753
 C     1.36829    0.56342   -0.93820
 C     2.46760   -0.15686   -0.51171
 C     2.34791   -1.08875    0.51143
 C     1.09426   -1.27301    1.09574
 C     0.00134   -0.55676    0.66295
 Cl    0.90117   -2.41366    2.39349
 O     3.35745   -1.83077    0.98198
 C     4.62489   -1.71798    0.41899
 C     5.52805   -0.63445    0.90427
 C     5.74715   -2.06341    1.32143
 H    -2.62003   -0.12449   -0.07516
 H    -1.59501    3.83255   -2.55605
 H    -5.93021    0.01395   -0.10820
 H     1.47993    1.28400   -1.72473
 H     3.42086    0.01322   -0.97093
 H    -0.93532   -0.72364    1.15831
 H     4.66815   -2.02074   -0.61310
 H     6.21284   -0.18682    0.20530
 H     5.12961    0.03863    1.64204
 H     5.48703   -2.32921    2.32965
 H     6.58209   -2.60123    0.90927
