43
HF_K092_.xyz
 O    -2.15987    0.68279   -0.55598
 C    -3.10310    0.44404    0.47813
 C    -4.33305    1.29674    0.23385
 N    -4.07763    2.71364    0.44134
 C    -5.11902    3.44381    1.15159
 C    -6.28294    3.83433    0.24959
 O    -5.81859    4.56402   -0.85300
 C    -4.87166    3.85789   -1.61181
 C    -3.67861    3.45419   -0.75293
 C    -0.94852    0.10705   -0.41185
 C     0.04422    0.75129    0.31001
 C     1.29873    0.18989    0.43815
 C     1.59335   -1.03149   -0.15957
 C     2.93400   -1.66310   -0.04095
 N     3.25535   -2.57881   -0.93837
 C     4.44327   -3.14469   -0.84270
 N     5.36087   -2.89412    0.06135
 C     5.04284   -1.98838    0.96922
 C     3.83142   -1.33341    0.97662
 C     6.09324   -1.71381    2.01689
 O     7.14569   -2.24708    2.07063
 O     5.70078   -0.79005    2.88896
 C     0.60330   -1.66967   -0.89871
 C    -0.65275   -1.10943   -1.01523
 Cl   -1.86964   -1.93706   -1.94284
 H    -3.37198   -0.60842    0.47699
 H    -2.66429    0.69807    1.43683
 H    -4.72004    1.06901   -0.75833
 H    -5.08445    0.96448    0.94328
 H    -4.67644    4.35319    1.54954
 H    -5.46763    2.85752    1.99555
 H    -6.82123    2.94699   -0.08954
 H    -6.98548    4.46960    0.77617
 H    -4.55994    4.51457   -2.41508
 H    -5.34015    2.98136   -2.06117
 H    -3.16599    4.35685   -0.43036
 H    -2.97803    2.86373   -1.32658
 H    -0.18338    1.70388    0.75201
 H     2.04974    0.72737    0.98619
 H     4.68292   -3.88519   -1.58415
 H     3.59735   -0.62465    1.74178
 H     6.39713   -0.66233    3.51951
 H     0.81785   -2.60236   -1.38069
