23
HF_K080_.xyz
 N     0.45740    1.69043    0.42787
 C     0.39842    0.40791    0.11283
 C    -0.83914   -0.20426   -0.10172
 C    -1.95378    0.59550    0.00959
 N    -1.88494    1.88047    0.31277
 C    -0.67888    2.35651    0.51178
 C    -3.34248    0.04615   -0.20164
 O    -4.33730    0.67728   -0.11384
 O    -3.32863   -1.24872   -0.50388
 C     1.68262   -0.33626    0.01941
 C     2.80368    0.13871    0.69536
 C     4.00310   -0.54570    0.62960
 C     4.10355   -1.70636   -0.12130
 C     2.99801   -2.17938   -0.80761
 C     1.79445   -1.49994   -0.73572
 H    -0.93064   -1.24647   -0.32135
 H    -0.60574    3.39829    0.76710
 H    -4.22464   -1.53472   -0.62189
 H     2.72438    1.04206    1.26877
 H     4.85933   -0.17285    1.16277
 H     5.03832   -2.23577   -0.17455
 H     3.07175   -3.07229   -1.40223
 H     0.95316   -1.87142   -1.29163
