25
HF_K102_.xyz
 N    -2.02096   -0.82898    0.02763
 C    -0.72786   -0.87237   -0.15611
 C    -0.03795   -2.11009   -0.26385
 C    -0.85732   -3.23533   -0.21800
 N    -2.17474   -3.15218   -0.06315
 C    -2.69785   -1.97040    0.06624
 C    -0.28838   -4.61627   -0.31459
 O     0.88374   -4.85540   -0.33836
 O    -1.19694   -5.56388   -0.36699
 N     1.32359   -2.15333   -0.43376
 C    -0.02844    0.44691   -0.21407
 C     0.90980    0.74782   -1.19542
 C     1.49170    1.99960   -1.24427
 C     1.15664    2.96710   -0.31237
 C     0.21781    2.67615    0.66768
 C    -0.37384    1.42660    0.70636
 Cl   -0.24741    3.84562    1.86000
 Cl    1.92618    4.51576   -0.41093
 H    -3.75958   -1.90217    0.21066
 H    -0.74731   -6.39684   -0.42062
 H     1.83533   -1.39569   -0.04373
 H     1.73934   -3.04944   -0.31512
 H     1.17955    0.01429   -1.93138
 H     2.20757    2.23561   -2.00840
 H    -1.11362    1.21981    1.45451
