23
HF_K052_.xyz
 N    -0.32073    2.06798    0.43695
 C    -0.40533    0.78589    0.12708
 C    -1.65027    0.20268   -0.11589
 C    -2.74735    1.03137   -0.03698
 N    -2.65324    2.31522    0.26118
 C    -1.44115    2.76325    0.48858
 C    -4.14395    0.51556   -0.28077
 O    -5.12383    1.17194   -0.21804
 O    -4.15340   -0.77984   -0.57968
 C     0.86364    0.01238    0.07100
 C     0.96758   -1.16802   -0.65706
 C     2.15445   -1.87715   -0.69787
 C     3.24762   -1.40170    0.00106
 C     3.17218   -0.22733    0.72856
 C     1.98367    0.47642    0.75518
 Cl    4.74346   -2.29132   -0.03953
 H    -1.76363   -0.83803   -0.33271
 H    -1.34857    3.80425    0.74014
 H    -5.05255   -1.04610   -0.71885
 H     0.13175   -1.53843   -1.22094
 H     2.23045   -2.78302   -1.26858
 H     4.03078    0.13032    1.26442
 H     1.91727    1.39245    1.30926
