34
HF_K085_.xyz
 N    -2.13224    1.69914    0.86230
 C    -1.86252    0.71143    0.02623
 C    -2.83529    0.26673   -0.87129
 C    -4.04732    0.91998   -0.84358
 N    -4.30507    1.91446   -0.01261
 C    -3.33128    2.24636    0.80199
 C    -5.17390    0.52982   -1.76803
 O    -6.23657    1.04499   -1.78888
 O    -4.83632   -0.47328   -2.57274
 C    -0.50787    0.10434    0.10083
 C     0.03815   -0.61141   -0.95888
 C     1.29985   -1.16380   -0.85936
 C     2.04791   -1.02085    0.29877
 C     1.49894   -0.30799    1.36029
 C     0.24248    0.25349    1.26241
 Cl    2.39078   -0.13219    2.84378
 O     3.26102   -1.60323    0.39534
 C     4.38385   -0.81233    0.06452
 C     5.72789   -1.44528    0.41917
 C     6.28339   -0.86098   -0.89976
 C     4.82710   -0.74421   -1.40626
 H    -2.66936   -0.55217   -1.53809
 H    -3.52810    3.04734    1.49138
 H    -5.58072   -0.67471   -3.12419
 H    -0.50410   -0.72797   -1.87856
 H     1.72205   -1.72080   -1.67470
 H    -0.16053    0.80456    2.08839
 H     4.27605    0.17615    0.49590
 H     5.65202   -2.52568    0.37414
 H     6.19012   -1.15696    1.35500
 H     6.74272    0.11041   -0.75391
 H     6.95977   -1.48158   -1.47345
 H     4.52391   -1.64140   -1.93491
 H     4.54865    0.12769   -1.98651
