26
HF_K010_.xyz
 N    -0.24407    1.84102    0.35173
 C    -0.32347    0.56281    0.02450
 C    -1.56589   -0.01986   -0.23253
 C    -2.66545    0.80495   -0.14734
 N    -2.57639    2.08494    0.16813
 C    -1.36616    2.53273    0.40696
 C    -4.05954    0.28904   -0.40472
 O    -5.04214    0.94096   -0.33626
 O    -4.06480   -1.00181   -0.72344
 C     0.94739   -0.20701   -0.03729
 C     1.05617   -1.38702   -0.76123
 C     2.25471   -2.08168   -0.79824
 C     3.37583   -1.63221   -0.11817
 C     3.23409   -0.44917    0.59014
 C     2.06633    0.26815    0.64250
 F     4.29296    0.01326    1.25574
 C     4.69277   -2.36411   -0.13229
 H    -1.67502   -1.05742   -0.46513
 H    -1.27744    3.57055    0.67281
 H    -4.96299   -1.26743   -0.86996
 H     0.22185   -1.76569   -1.32136
 H     2.31913   -2.98932   -1.37181
 H     2.02554    1.18172    1.20173
 H     5.48123   -1.73758   -0.53528
 H     4.98868   -2.65042    0.87133
 H     4.62650   -3.26016   -0.73680
