27
HF_K022_.xyz
 N    -1.78477    2.46719   -0.03464
 C    -1.73601    1.17546   -0.30718
 C    -2.90730    0.46198   -0.55780
 C    -4.08425    1.17901   -0.52682
 N    -4.12457    2.47272   -0.26665
 C    -2.96918    3.04829   -0.02751
 C    -5.41675    0.51891   -0.78381
 O    -6.45756    1.07590   -0.76173
 O    -5.28858   -0.77848   -1.04246
 C    -0.39331    0.53212   -0.31305
 C    -0.14958   -0.64620   -1.00836
 C     1.10675   -1.22091   -0.99748
 C     2.12730   -0.63050   -0.27919
 C     1.90228    0.55280    0.40675
 C     0.64925    1.13265    0.38356
 Cl    3.18189    1.32350    1.28358
 O     3.39148   -1.16981   -0.30988
 C     3.66570   -2.24113    0.44666
 F     4.94430   -2.47863    0.35784
 F     3.35044   -2.05452    1.70773
 F     3.01411   -3.31225    0.03574
 H    -2.91086   -0.59071   -0.74475
 H    -2.98744    4.09980    0.19404
 H    -6.15247   -1.13968   -1.19184
 H    -0.92397   -1.11269   -1.58722
 H     1.30741   -2.11928   -1.54833
 H     0.48002    2.05246    0.90630
