26
HF_K009_.xyz
 N    -0.54562    1.82033    0.25391
 C    -0.63775    0.54667   -0.08655
 C    -1.88493   -0.01849   -0.35971
 C    -2.97502    0.81874   -0.27554
 N    -2.87318    2.09439    0.05381
 C    -1.65991    2.52503    0.30748
 C    -4.37284    0.32265   -0.55109
 O    -5.34713    0.98767   -0.49151
 O    -4.39163   -0.96680   -0.87518
 C     0.62375   -0.23800   -0.14627
 C     0.72723   -1.41264   -0.87970
 C     1.91616   -2.11718   -0.91138
 C     3.04123   -1.68975   -0.21757
 C     2.91703   -0.50721    0.50724
 C     1.74273    0.21438    0.54469
 Cl    4.28257    0.10733    1.40908
 C     4.32508   -2.47775   -0.26361
 H    -2.00502   -1.05238   -0.60345
 H    -1.56076    3.55875    0.58509
 H    -5.29145   -1.21981   -1.03347
 H    -0.10591   -1.77872   -1.45033
 H     1.97540   -3.01987   -1.49274
 H     1.68943    1.12516    1.10665
 H     5.13412   -1.88142   -0.67117
 H     4.62468   -2.79307    0.72988
 H     4.20634   -3.35957   -0.88052
