24
HF_K099_.xyz
 N    -1.96794   -0.84013    0.20101
 C    -0.69112   -0.87587   -0.08867
 C    -0.05246   -2.12524   -0.28313
 C    -0.85767   -3.24516   -0.16740
 N    -2.15426   -3.16631    0.11450
 C    -2.64758   -1.97675    0.29068
 C    -0.26907   -4.60573   -0.34963
 O     0.89576   -4.78153   -0.58096
 O    -1.12265   -5.58973   -0.23791
 O     1.25048   -2.16073   -0.54712
 C     0.01788    0.43392   -0.16347
 C     1.10672    0.66614   -0.99748
 C     1.69051    1.91649   -1.04851
 C     1.21199    2.95145   -0.26423
 C     0.12668    2.72883    0.57120
 C    -0.46650    1.48144    0.61080
 Cl   -0.52114    3.98317    1.57971
 Cl    1.99150    4.49532   -0.35977
 H    -3.69240   -1.89805    0.52534
 H    -0.65926   -6.40740   -0.36712
 H     1.54221   -3.06441   -0.62649
 H     1.50138   -0.11654   -1.61144
 H     2.52502    2.09690   -1.69884
 H    -1.31408    1.32593    1.24743
