23
HF_K003_.xyz
 N    -0.48396    2.27699    0.55665
 C    -0.56699    0.99762    0.23729
 C    -1.80787    0.41089   -0.00888
 C    -2.90860    1.23566    0.07943
 N    -2.81717    2.51655    0.38703
 C    -1.60611    2.96841    0.61524
 C    -4.30430    0.71728   -0.16658
 O    -5.28532    1.37090   -0.09791
 O    -4.30873   -0.57549   -0.47437
 C     0.70678    0.22988    0.17364
 C     1.82633    0.69134    0.85930
 C     3.01294   -0.01434    0.82001
 C     3.10523   -1.18548    0.08750
 C     1.99533   -1.63307   -0.60036
 C     0.80431   -0.94352   -0.56388
 F     2.06572   -2.74204   -1.31645
 Cl    4.58681   -2.07652    0.02521
 H    -1.91771   -0.62823   -0.23540
 H    -1.51712    4.00780    0.87402
 H    -5.20641   -0.84594   -0.61579
 H     1.76190    1.60218    1.42086
 H     3.87414    0.33793    1.35545
 H    -0.01498   -1.33331   -1.13670
