21
HF_K124_.xyz
 N     2.18795   -0.97304    0.16165
 C     1.54188    0.15652   -0.07708
 C     2.24643    1.35115   -0.21833
 C     3.61816    1.26479   -0.11786
 N     4.26267    0.13438    0.10789
 C     3.50219   -0.93022    0.24248
 C     4.42525    2.46684   -0.25623
 N     5.02053    3.42568   -0.37081
 C     0.05942    0.08854   -0.16799
 C    -0.68118    1.06289   -0.82796
 C    -2.05618    0.97207   -0.89271
 C    -2.71715   -0.08946   -0.29660
 C    -1.98568   -1.06975    0.35971
 C    -0.60691   -0.98044    0.41557
 Cl   -2.75509   -2.42230    1.12189
 Cl   -4.44292   -0.15300   -0.40050
 H     1.76680    2.29551   -0.37491
 H     4.00459   -1.86019    0.43536
 H    -0.19793    1.88719   -1.31770
 H    -2.62679    1.71976   -1.40934
 H    -0.04911   -1.74618    0.91596
