23
HF_K005_.xyz
 N    -0.28805    1.68044    0.22136
 C    -0.37400    0.40367   -0.10697
 C    -1.61753   -0.17441   -0.36623
 C    -2.71404    0.65446   -0.27886
 N    -2.61900    1.93336    0.03925
 C    -1.40744    2.37719    0.27755
 C    -4.11031    0.14488   -0.53716
 O    -5.08941    0.80180   -0.46931
 O    -4.12077   -1.14580   -0.85570
 C     0.89491   -0.37179   -0.17415
 C     1.00091   -1.53131   -0.93390
 C     2.19249   -2.23365   -0.97563
 C     3.29121   -1.79440   -0.25941
 C     3.18015   -0.63686    0.49058
 C     2.00297    0.08040    0.53687
 Cl    4.55893   -0.07178    1.39582
 H    -1.73011   -1.21120   -0.60128
 H    -1.31453    3.41350    0.54726
 H    -5.01979   -1.40824   -1.00285
 H     0.16809   -1.88185   -1.51437
 H     2.26834   -3.12469   -1.57202
 H     4.21856   -2.33472   -0.28361
 H     1.93629    0.98032    1.11458
