26
DFT_K009_.xyz
 N    -0.57064    1.76572    0.45480
 C    -0.65301    0.50590    0.00760
 C    -1.89827   -0.02110   -0.35556
 C    -3.00296    0.80892   -0.24928
 N    -2.91520    2.06613    0.18900
 C    -1.69580    2.47041    0.52291
 C    -4.38528    0.34067   -0.62611
 O    -5.37502    1.01505   -0.59646
 O    -4.38619   -0.95948   -1.01485
 C     0.60284   -0.27403   -0.07155
 C     0.67194   -1.51901   -0.70130
 C     1.86844   -2.21538   -0.75497
 C     3.04305   -1.71710   -0.18922
 C     2.95173   -0.46859    0.43457
 C     1.76932    0.24572    0.49589
 Cl    4.38055    0.23594    1.17344
 C     4.32676   -2.49036   -0.25821
 H    -2.01585   -1.03451   -0.69912
 H    -1.60614    3.48657    0.88911
 H    -5.30213   -1.17856   -1.23879
 H    -0.20072   -1.95118   -1.16848
 H     1.90027   -3.17575   -1.25272
 H     1.73754    1.20874    0.98024
 H     5.10253   -1.92166   -0.77361
 H     4.71033   -2.70767    0.74005
 H     4.18202   -3.43185   -0.78461
