26
DFT_K053_.xyz
 N    -2.25292    0.65441   -0.46108
 C    -0.94238    0.65513   -0.19677
 C    -0.27471    1.86286    0.02356
 C    -1.03300    3.01887   -0.03196
 N    -2.34075    3.01691   -0.28671
 C    -2.89943    1.82270   -0.49690
 C    -4.37006    1.78173   -0.78693
 C    -0.33786    4.33385    0.20126
 O     0.84439    4.42206    0.42549
 O    -1.16061    5.38995    0.13507
 C    -0.25930   -0.66011   -0.16390
 C    -0.92008   -1.80177   -0.62778
 C    -0.29532   -3.03497   -0.60929
 C     1.00153   -3.16284   -0.12133
 C     1.66929   -2.03286    0.35103
 C     1.04025   -0.79606    0.32572
 Cl    3.28788   -2.13444    0.98377
 Cl    1.74963   -4.73066   -0.11324
 H     0.78265    1.93284    0.21796
 H    -4.56054    1.20452   -1.69160
 H    -4.89666    1.28225    0.02830
 H    -4.76167    2.78836   -0.90027
 H    -0.61546    6.17384    0.29878
 H    -1.92790   -1.70635   -1.00100
 H    -0.80537   -3.91478   -0.97323
 H     1.58429    0.05268    0.71010
