24
DFT_K099_.xyz
 N    -1.92203   -0.85527    0.36970
 C    -0.64728   -0.88483   -0.01297
 C    -0.03932   -2.14254   -0.27864
 C    -0.85299   -3.27896   -0.13308
 N    -2.13441   -3.20613    0.24055
 C    -2.60232   -1.99562    0.47910
 C    -0.26825   -4.61772   -0.39486
 O     0.90013   -4.77998   -0.72285
 O    -1.11057   -5.63558   -0.24533
 O     1.24753   -2.22119   -0.63233
 C     0.05083    0.41930   -0.10889
 C     1.21433    0.62719   -0.85915
 C     1.79007    1.88517   -0.92782
 C     1.23442    2.95976   -0.24540
 C     0.07518    2.76436    0.50829
 C    -0.50726    1.51017    0.56627
 Cl   -0.66527    4.07504    1.38488
 Cl    2.00061    4.51592   -0.35156
 H    -3.63643   -1.91655    0.78989
 H    -0.61507   -6.44536   -0.44097
 H     1.45858   -3.17830   -0.75035
 H     1.67052   -0.18522   -1.39731
 H     2.68274    2.04386   -1.51470
 H    -1.41155    1.37107    1.13692
