23
DFT_K011_.xyz
 N    -0.63240    1.78671    0.47047
 C    -0.70988    0.52842    0.01918
 C    -1.95352   -0.00676   -0.33539
 C    -3.06320    0.81570   -0.21760
 N    -2.98037    2.07154    0.22428
 C    -1.76155    2.48372    0.55030
 C    -4.44554    0.33939   -0.58589
 O    -5.43832    1.00827   -0.54873
 O    -4.44017   -0.96030   -0.97560
 C     0.55284   -0.24062   -0.07156
 C     0.62238   -1.48571   -0.70426
 C     1.81953   -2.17974   -0.77460
 C     2.95804   -1.63380   -0.20891
 C     2.91497   -0.39558    0.42450
 C     1.71730    0.29460    0.48803
 Cl    4.36174    0.26748    1.12534
 F     4.11022   -2.30820   -0.27766
 H    -2.06868   -1.01980   -0.68102
 H    -1.67623    3.49881    0.92018
 H    -5.35573   -1.18645   -1.19406
 H    -0.25235   -1.92226   -1.16230
 H     1.88913   -3.13982   -1.26541
 H     1.67553    1.25786    0.97171
