26
DFT_K010_.xyz
 N    -0.25913    1.80080    0.52506
 C    -0.32996    0.53452    0.09384
 C    -1.57215   -0.01198   -0.25073
 C    -2.68662    0.80382   -0.13928
 N    -2.61065    2.06728    0.28370
 C    -1.39267    2.49179    0.59664
 C    -4.06734    0.31020   -0.48803
 O    -5.07216    0.95863   -0.41559
 O    -4.04813   -0.98142   -0.90408
 C     0.93444   -0.23038    0.01389
 C     1.01219   -1.48440   -0.59801
 C     2.21648   -2.17139   -0.65460
 C     3.38654   -1.64852   -0.10695
 C     3.27600   -0.39700    0.49357
 C     2.09955    0.31451    0.56358
 F     4.38859    0.14570    1.03695
 C     4.70171   -2.37010   -0.15142
 H    -1.67967   -1.03034   -0.58257
 H    -1.31197    3.51402    0.94779
 H    -4.96487   -1.21885   -1.10472
 H     0.13947   -1.93210   -1.04970
 H     2.25400   -3.13883   -1.13827
 H     2.07721    1.28385    1.03693
 H     5.45724   -1.78001   -0.67288
 H     5.08522   -2.55209    0.85398
 H     4.60159   -3.32727   -0.65964
