26
DFT_K014_.xyz
 N    -0.40873    1.90839    0.51318
 C    -0.49831    0.64920    0.06191
 C    -1.74215    0.15058   -0.34763
 C    -2.83204    1.00343   -0.28327
 N    -2.73531    2.25959    0.15740
 C    -1.52070    2.63613    0.53776
 C    -4.20918    0.56115   -0.70629
 O    -5.19369    1.24376   -0.68045
 O    -4.21484   -0.72777   -1.13199
 C     0.74160   -0.15837    0.03495
 C     1.86615    0.30200    0.72139
 C     3.02991   -0.46136    0.70310
 C     3.04455   -1.66859   -0.01079
 C     1.95119   -2.14929   -0.70983
 C     0.80184   -1.37766   -0.67318
 O     4.26554   -2.26378    0.08970
 C     5.03009   -1.43110    0.87103
 C     4.34937   -0.33770    1.26976
 H    -1.86992   -0.86194   -0.69005
 H    -1.42331    3.65067    0.90708
 H    -5.12825   -0.92962   -1.38083
 H     1.81200    1.24060    1.25173
 H     1.99596   -3.07742   -1.26064
 H    -0.06014   -1.72160   -1.22513
 H     6.03691   -1.76567    1.04624
 H     4.72918    0.45879    1.88566
