25
DFT_K102_.xyz
 N    -2.01933   -0.82767    0.08617
 C    -0.71345   -0.87222   -0.13121
 C    -0.03207   -2.12051   -0.26356
 C    -0.86371   -3.26411   -0.21640
 N    -2.18489   -3.17861   -0.03212
 C    -2.69980   -1.97683    0.12732
 C    -0.28157   -4.62645   -0.34238
 O     0.91127   -4.85681   -0.43758
 O    -1.19250   -5.60750   -0.33561
 N     1.31455   -2.19664   -0.43376
 C    -0.01352    0.43711   -0.19530
 C     0.97093    0.72454   -1.14603
 C     1.55365    1.98096   -1.20008
 C     1.17793    2.97243   -0.30215
 C     0.19098    2.69848    0.64704
 C    -0.40073    1.44535    0.68846
 Cl   -0.32292    3.90580    1.79028
 Cl    1.94625    4.52887   -0.39427
 H    -3.76607   -1.90752    0.30003
 H    -0.69823   -6.43655   -0.41686
 H     1.87684   -1.40060   -0.19193
 H     1.72369   -3.11842   -0.37809
 H     1.26384   -0.01976   -1.87211
 H     2.30180    2.20612   -1.94583
 H    -1.18074    1.25049    1.40821
