23
DFT_K045_.xyz
 N     2.39080   -0.67449   -0.84092
 C     1.12121   -0.65875   -0.41087
 C     0.52901   -1.88460   -0.08640
 C     1.27207   -3.05156   -0.18142
 N     2.54108   -3.02824   -0.58395
 C     3.02737   -1.83520   -0.90864
 C     0.71736   -4.40231    0.20176
 O     1.27260   -5.15979    0.94542
 O    -0.45973   -4.65164   -0.40116
 F    -0.74606   -1.95199    0.32623
 C     0.44765    0.65690   -0.33929
 C     0.97257    1.71849   -1.08593
 C     0.38658    2.96866   -1.04340
 C    -0.73057    3.19792   -0.24553
 C    -1.25550    2.15207    0.51251
 C    -0.67340    0.89252    0.46000
 Cl   -2.64083    2.38540    1.53999
 Cl   -1.43509    4.78450   -0.21801
 H     4.05173   -1.80804   -1.25904
 H    -0.75372   -5.52718   -0.10596
 H     1.84708    1.54967   -1.69484
 H     0.78859    3.78341   -1.62736
 H    -1.10287    0.11153    1.06363
