23
DFT_K002_.xyz
 N    -0.17071    2.09672    0.70842
 C    -0.23068    0.83188    0.27213
 C    -1.46728    0.27435   -0.07264
 C    -2.59018    1.07816    0.04774
 N    -2.52540    2.33930    0.47733
 C    -1.31071    2.77575    0.78725
 C    -3.96780    0.57261   -0.29880
 O    -4.97730    1.21234   -0.21904
 O    -3.93634   -0.71614   -0.72072
 C     1.04392    0.08285    0.18760
 C     2.21092    0.63756    0.72251
 C     3.41682   -0.04394    0.66303
 C     3.46871   -1.28784    0.06136
 C     2.31787   -1.84779   -0.47933
 C     1.11520   -1.17644   -0.41934
 F     2.38820   -3.05115   -1.06666
 F     4.62160   -1.96308   -0.00960
 H    -1.56802   -0.74244   -0.41193
 H    -1.23938    3.79732    1.14210
 H    -4.85047   -0.96379   -0.92127
 H     2.15761    1.61057    1.18503
 H     4.32285    0.37476    1.07747
 H     0.25481   -1.65320   -0.86447
