23
DFT_K004_.xyz
 N     0.05583    1.65366    0.48537
 C    -0.01839    0.38123    0.07528
 C    -1.26168   -0.17263   -0.25025
 C    -2.37565    0.64615   -0.14854
 N    -2.29631    1.91639    0.25116
 C    -1.07715    2.34609    0.55244
 C    -3.75847    0.14955   -0.48590
 O    -4.75622    0.81182   -0.45567
 O    -3.74829   -1.16054   -0.83871
 C     1.24845   -0.38459   -0.00235
 C     1.32344   -1.63025   -0.63467
 C     2.52608   -2.32096   -0.69134
 C     3.67510   -1.79010   -0.11867
 C     3.58445   -0.55492    0.50078
 C     2.40465    0.15671    0.56823
 F     4.69210   -0.02785    1.05919
 H    -1.37117   -1.19779   -0.55994
 H    -0.99491    3.37345    0.88766
 H    -4.66496   -1.39885   -1.03879
 H     0.45140   -2.06259   -1.10193
 H     2.57147   -3.28008   -1.18837
 H     4.62191   -2.30971   -0.14851
 H     2.37295    1.12009    1.05288
