34
DFT_K085_.xyz
 N    -2.19502    1.58879    0.98309
 C    -1.89993    0.64819    0.07613
 C    -2.86358    0.26689   -0.86567
 C    -4.09232    0.90586   -0.82263
 N    -4.37947    1.84799    0.07778
 C    -3.40799    2.13094    0.93669
 C    -5.19234    0.57338   -1.79784
 O    -6.26751    1.10071   -1.83248
 O    -4.82246   -0.41157   -2.65482
 C    -0.54763    0.05039    0.12752
 C    -0.06035   -0.78335   -0.88342
 C     1.21309   -1.32007   -0.80340
 C     2.04146   -1.05112    0.28416
 C     1.54511   -0.22791    1.30380
 C     0.27765    0.31943    1.22338
 Cl    2.51996    0.09255    2.71932
 O     3.26363   -1.64755    0.35804
 C     4.40822   -0.83559    0.06280
 C     5.74667   -1.47054    0.45301
 C     6.33814   -0.88979   -0.85969
 C     4.89019   -0.75376   -1.40302
 H    -2.67978   -0.49975   -1.59871
 H    -3.62534    2.88854    1.68069
 H    -5.57752   -0.56335   -3.24126
 H    -0.66250   -1.00863   -1.75129
 H     1.59245   -1.96598   -1.58248
 H    -0.08819    0.95444    2.01488
 H     4.27967    0.15309    0.50373
 H     5.67007   -2.55656    0.40895
 H     6.18773   -1.17915    1.40389
 H     6.80921    0.07946   -0.70309
 H     7.02146   -1.52317   -1.42036
 H     4.58906   -1.64574   -1.95183
 H     4.63128    0.13201   -1.98027
