27
DFT_K022_.xyz
 N    -1.81134    2.43892    0.11955
 C    -1.75895    1.15031   -0.23795
 C    -2.93570    0.46687   -0.56108
 C    -4.12421    1.17970   -0.51162
 N    -4.17209    2.46607   -0.16323
 C    -3.00588    3.02277    0.13967
 C    -5.44757    0.54036   -0.84871
 O    -6.50626    1.10008   -0.83711
 O    -5.30143   -0.76815   -1.17520
 C    -0.42439    0.50525   -0.26175
 C    -0.20966   -0.73250   -0.87401
 C     1.05095   -1.30628   -0.88359
 C     2.11234   -0.66014   -0.26728
 C     1.91631    0.58072    0.33753
 C     0.65715    1.15730    0.33474
 Cl    3.24468    1.41502    1.08721
 O     3.39665   -1.19208   -0.33324
 C     3.70559   -2.24675    0.46432
 F     5.00336   -2.48585    0.32898
 F     3.43610   -2.01041    1.75530
 F     3.03296   -3.36288    0.12094
 H    -2.94159   -0.57616   -0.82820
 H    -3.02788    4.06583    0.43257
 H    -6.18707   -1.10380   -1.37551
 H    -1.01604   -1.25000   -1.37169
 H     1.22566   -2.25257   -1.37276
 H     0.50445    2.12019    0.79605
