23
DFT_K081_.xyz
 N    -0.05251    2.35241    0.60735
 C    -0.11911    1.03828    0.35781
 C    -1.36216    0.42222    0.17712
 C    -2.48907    1.22837    0.25464
 N    -2.41967    2.53886    0.49000
 C    -1.19694    3.02671    0.65849
 C    -3.87723    0.66676    0.07525
 O    -4.88835    1.30911    0.10133
 O    -3.85225   -0.67332   -0.12333
 C     1.17492    0.31246    0.33272
 C     2.27586    0.85449    1.00734
 C     3.50066    0.21022    1.02204
 C     3.66865   -0.99444    0.35083
 C     2.59837   -1.54597   -0.33671
 C     1.36933   -0.89572   -0.34026
 F     0.36508   -1.45057   -1.03765
 Cl    2.77952   -3.04399   -1.20351
 H    -1.45625   -0.63245   -0.00729
 H    -1.12162    4.08935    0.85753
 H    -4.77191   -0.95507   -0.23228
 H     2.14034    1.79655    1.51575
 H     4.33319    0.64439    1.55724
 H     4.61824   -1.50914    0.35102
