23
DFT_K065_.xyz
 N    -0.59611    2.12592    0.59895
 C    -0.67086    0.85801    0.17858
 C    -1.91107    0.30043   -0.14722
 C    -3.02839    1.11384   -0.03053
 N    -2.95019    2.38039    0.37904
 C    -1.73149    2.81416    0.67647
 C    -4.41276    0.61209   -0.35617
 O    -5.41705    1.25952   -0.27514
 O    -4.39199   -0.68234   -0.75957
 C     0.59906    0.09517    0.09351
 C     1.73426    0.58876    0.74155
 C     2.92056   -0.12134    0.67553
 C     3.02053   -1.31452   -0.02832
 C     1.88659   -1.78544   -0.67410
 C     0.68218   -1.10201   -0.62182
 Cl    1.98508   -3.27776   -1.58063
 Cl    4.33589    0.49258    1.49782
 H    -2.01729   -0.72356   -0.46298
 H    -1.65138    3.83963    1.01738
 H    -5.30906   -0.92926   -0.94714
 H     1.67469    1.51806    1.28472
 H     3.95172   -1.85692   -0.07431
 H    -0.16761   -1.49966   -1.15380
