26
DFT_K041_.xyz
 N    -1.39187    2.30590    0.34106
 C    -1.48727    1.01814   -0.00903
 C    -2.73714    0.45900   -0.29020
 C    -3.84345    1.29149   -0.20545
 N    -3.74502    2.57696    0.13391
 C    -2.51777    3.01172    0.39362
 C    -5.23734    0.78992   -0.48871
 O    -6.23289    1.45278   -0.43095
 O    -5.23576   -0.52421   -0.82356
 C    -0.22934    0.23402   -0.06759
 C    -0.15822   -1.00811   -0.69959
 C     1.03434   -1.71148   -0.73051
 C     2.18533   -1.20566   -0.13340
 C     2.11283    0.04178    0.49536
 C     0.92436    0.75167    0.52369
 Cl    3.50246    0.76003    1.26865
 C     3.46437   -2.01011   -0.18671
 F     3.28657   -3.17369   -0.84437
 F     4.44921   -1.35012   -0.82291
 F     3.91503   -2.32294    1.04211
 H    -2.85871   -0.57896   -0.54948
 H    -2.42183    4.05301    0.67753
 H    -6.15787   -0.76984   -0.98703
 H    -1.02268   -1.43074   -1.18933
 H     1.07948   -2.66795   -1.22775
 H     0.88426    1.71583    1.00503
