33
DFT_K044_.xyz
 N    -1.73836    2.10196   -0.18884
 C    -1.54623    0.77796   -0.27275
 C    -2.63379   -0.05950   -0.55809
 C    -3.87106    0.53284   -0.74625
 N    -4.05652    1.85267   -0.66319
 C    -2.96976    2.56190   -0.38584
 C    -5.09894   -0.28219   -1.05949
 O    -6.19772    0.16227   -1.23605
 O    -4.82031   -1.60943   -1.12249
 C    -0.17666    0.27252   -0.05491
 C     0.15250   -1.07973   -0.15642
 C     1.44784   -1.52534    0.05395
 C     2.47223   -0.62934    0.37231
 C     2.13711    0.73387    0.47636
 C     0.84797    1.17207    0.26696
 Cl    3.38301    1.89085    0.87350
 O     3.76046   -0.95747    0.57554
 C     4.20996   -2.32970    0.51106
 C     5.69626   -2.25789    0.20682
 C     3.90983   -3.04710    1.82056
 H    -2.53355   -1.12871   -0.63109
 H    -3.09902    3.63560   -0.31189
 H    -5.65537   -2.05475   -1.32566
 H    -0.60013   -1.81383   -0.40373
 H     1.65701   -2.57990   -0.03048
 H     0.61808    2.22265    0.34944
 H     3.70015   -2.82373   -0.31961
 H     6.22080   -1.72411    0.99941
 H     6.11252   -3.26267    0.13133
 H     5.87238   -1.73721   -0.73325
 H     2.84462   -3.04832    2.04728
 H     4.24620   -4.08314    1.76600
 H     4.43310   -2.55804    2.64258
