23
DFT_K052_.xyz
 N    -0.32816    2.04751    0.57375
 C    -0.40547    0.77109    0.17429
 C    -1.65243    0.21683   -0.13913
 C    -2.76510    1.03627   -0.03286
 N    -2.68261    2.30930    0.35794
 C    -1.46036    2.74065    0.64409
 C    -4.15125    0.53601   -0.35036
 O    -5.15408    1.18688   -0.27560
 O    -4.13838   -0.76359   -0.74036
 C     0.85799    0.00419    0.09725
 C     0.92975   -1.24671   -0.52428
 C     2.12276   -1.95018   -0.58489
 C     3.26344   -1.40151   -0.01447
 C     3.22285   -0.15974    0.60683
 C     2.02570    0.53505    0.65622
 Cl    4.77025   -2.28416   -0.08320
 H    -1.76605   -0.81009   -0.44188
 H    -1.37486    3.77104    0.96933
 H    -5.05801   -1.00506   -0.92248
 H     0.05576   -1.68300   -0.98578
 H     2.17065   -2.91256   -1.07246
 H     4.11881    0.25455    1.04519
 H     1.98000    1.50351    1.13080
