37
DFT_K086_.xyz
 N    -2.25277    2.24582   -0.57646
 C    -2.03193    0.92407   -0.53895
 C    -3.10156    0.04101   -0.74336
 C    -4.35216    0.58697   -0.97847
 N    -4.56614    1.90457   -1.01574
 C    -3.49413    2.65931   -0.81025
 C    -5.56286   -0.27960   -1.20962
 O    -6.67216    0.12248   -1.41861
 O    -5.25478   -1.60074   -1.15417
 C    -0.65107    0.47026   -0.28141
 C    -0.29991   -0.87901   -0.22232
 C     1.00597   -1.27526    0.02034
 C     2.01848   -0.33032    0.20941
 C     1.66091    1.03010    0.15470
 C     0.36153    1.41891   -0.08550
 Cl    2.89209    2.24601    0.38996
 O     3.31222   -0.61684    0.43217
 C     3.76702   -1.98868    0.45994
 C     5.29400   -1.92929    0.41431
 C     5.70534   -1.77733    1.88197
 C     4.74876   -2.73394    2.61064
 C     3.42552   -2.67358    1.80623
 H    -2.97764   -1.02804   -0.72290
 H    -3.64630    3.73228   -0.83580
 H    -6.08055   -2.08051   -1.31162
 H    -1.04383   -1.64948   -0.36204
 H     1.23473   -2.32807    0.06875
 H     0.11361    2.46786   -0.12634
 H     3.34774   -2.50399   -0.40476
 H     5.66713   -2.87679    0.01720
 H     5.64181   -1.13044   -0.23797
 H     5.53743   -0.74875    2.20555
 H     6.75471   -2.01190    2.05746
 H     4.60666   -2.47249    3.65830
 H     5.15314   -3.74772    2.58642
 H     2.66631   -2.09208    2.32706
 H     3.00808   -3.66772    1.64416
