23
DFT_K003_.xyz
 N    -0.49009    2.25931    0.69967
 C    -0.56332    0.99167    0.27429
 C    -1.80591    0.43883   -0.05459
 C    -2.92235    1.25176    0.06753
 N    -2.84468    2.51608    0.48489
 C    -1.62469    2.94718    0.78157
 C    -4.30652    0.75301   -0.26305
 O    -5.31013    1.40191   -0.18465
 O    -4.28767   -0.54103   -0.66876
 C     0.70524    0.23223    0.18600
 C     1.87654    0.76902    0.73029
 C     3.07337    0.07550    0.66645
 C     3.13010   -1.16936    0.05137
 C     1.96737   -1.70090   -0.49504
 C     0.76861   -1.01941   -0.43239
 F     2.00264   -2.89589   -1.10012
 Cl    4.62002   -2.05422   -0.04259
 H    -1.91555   -0.58097   -0.38205
 H    -1.54376    3.97123    1.12697
 H    -5.20480   -0.78466   -0.86050
 H     1.83410    1.73766    1.20325
 H     3.97427    0.49228    1.09247
 H    -0.09313   -1.48462   -0.88698
