21
DFT_K124_.xyz
 N     2.18357   -0.94506    0.32187
 C     1.53651    0.17890   -0.01670
 C     2.25962    1.35349   -0.24692
 C     3.64060    1.28334   -0.12565
 N     4.28781    0.15987    0.20246
 C     3.50743   -0.89565    0.41332
 C     4.43729    2.46155   -0.35389
 N     5.03865    3.42400   -0.54452
 C     0.06214    0.11321   -0.11883
 C    -0.69067    1.13701   -0.70181
 C    -2.06866    1.04208   -0.77969
 C    -2.72813   -0.07323   -0.27400
 C    -1.98629   -1.10370    0.30822
 C    -0.60565   -1.00733    0.37848
 Cl   -2.76181   -2.51973    0.95464
 Cl   -4.45796   -0.14989   -0.38719
 H     1.78577    2.28942   -0.49555
 H     4.00842   -1.81616    0.68817
 H    -0.21203    2.01069   -1.11870
 H    -2.64815    1.83035   -1.23678
 H    -0.03552   -1.80795    0.82264
