34
DFT_K054_.xyz
 N    -2.37473    1.80740    0.40716
 C    -1.82841    0.82287   -0.32011
 C    -2.52297    0.31717   -1.42774
 C    -3.75667    0.87284   -1.72299
 N    -4.29513    1.85511   -0.99663
 C    -3.56527    2.26489    0.03333
 C    -4.57836    0.39822   -2.89362
 O    -5.64872    0.83413   -3.20987
 O    -3.95961   -0.60282   -3.57049
 C    -0.50591    0.31779    0.09958
 C     0.19436   -0.64894   -0.62339
 C     1.43499   -1.10326   -0.20439
 C     2.02035   -0.60855    0.96311
 C     1.31642    0.36878    1.68885
 C     0.08513    0.82038    1.26626
 Cl    2.01599    1.01563    3.15134
 O     3.21638   -0.99639    1.44561
 C     3.94080   -2.04067    0.80389
 C     4.77133   -1.70912   -0.45836
 C     5.92075   -2.55365    0.15183
 C     5.23604   -2.41265    1.53724
 H    -2.13204   -0.47839   -2.03851
 H    -3.98659    3.05944    0.63847
 H    -4.54975   -0.84560   -4.29844
 H    -0.21309   -1.05839   -1.53600
 H     1.95503   -1.84057   -0.79560
 H    -0.43735    1.57049    1.83878
 H     3.28653   -2.90312    0.65756
 H     4.37391   -2.00304   -1.42831
 H     5.01831   -0.64817   -0.47885
 H     6.92979   -2.16069    0.05494
 H     5.91044   -3.58088   -0.20951
 H     5.61247   -1.55015    2.08527
 H     5.21096   -3.27585    2.19888
