27
DFT_K083_.xyz
 N    -0.56189    2.40029    0.95194
 C    -0.58177    1.13790    0.50012
 C    -1.81718    0.53704    0.19807
 C    -2.95389    1.33552    0.30449
 N    -2.91289    2.60017    0.71428
 C    -1.70889    3.05652    1.04675
 C    -4.30995    0.81857   -0.11067
 O    -4.92760    1.23786   -1.04741
 O    -4.75615   -0.15443    0.71186
 O    -1.94404   -0.74397   -0.26279
 C    -1.90411   -1.77592    0.73885
 C     0.73625    0.47382    0.35805
 C     1.79463    0.88583    1.17477
 C     3.04563    0.31053    1.05190
 C     3.27712   -0.67725    0.09945
 C     2.23422   -1.08317   -0.73258
 C     0.97446   -0.51483   -0.59847
 Cl    2.47257   -2.30047   -1.95526
 Cl    4.86455   -1.37304   -0.02473
 H    -1.66010    4.07264    1.41889
 H    -5.62762   -0.42529    0.38315
 H    -0.96433   -1.74860    1.29206
 H    -2.74599   -1.66855    1.42239
 H    -1.98199   -2.71722    0.20199
 H     1.62568    1.66703    1.89998
 H     3.85908    0.62257    1.69023
 H     0.18651   -0.84213   -1.25676
