23
DFT_K005_.xyz
 N    -0.30750    1.63274    0.39518
 C    -0.38645    0.36543   -0.02903
 C    -1.63149   -0.18099   -0.35995
 C    -2.74295    0.63998   -0.24718
 N    -2.65918    1.90503    0.16741
 C    -1.43826    2.32795    0.47146
 C    -4.12803    0.15095   -0.58685
 O    -5.12607    0.81105   -0.53112
 O    -4.11902   -1.14935   -0.97390
 C     0.87730   -0.40536   -0.11479
 C     0.95213   -1.63301   -0.77956
 C     2.15168   -2.32746   -0.84048
 C     3.29582   -1.81784   -0.24039
 C     3.21706   -0.59626    0.41615
 C     2.03070    0.11298    0.48272
 Cl    4.65209    0.06078    1.17567
 H    -1.74436   -1.20244   -0.68071
 H    -1.35238    3.35127    0.81779
 H    -5.03695   -1.38416   -1.17242
 H     0.08307   -2.04722   -1.26888
 H     2.20036   -3.27315   -1.36257
 H     4.23304   -2.35286   -0.28164
 H     1.98332    1.06390    0.98909
