26
DFT_K051_.xyz
 N     2.40274    0.72427    0.26843
 C     1.06327    0.73655    0.26377
 C     0.33770    1.94622    0.27881
 C     1.12713    3.09973    0.17928
 N     2.45913    3.08264    0.12786
 C     3.03118    1.88889    0.21377
 C     0.52512    4.48455    0.16892
 O    -0.32937    4.86830    0.92734
 O     1.07178    5.25933   -0.78074
 C    -1.16140    2.01084    0.41403
 C     0.43511   -0.61125    0.26668
 C     0.98663   -1.62049    1.06060
 C     0.44608   -2.89353    1.05988
 C    -0.64272   -3.19698    0.24815
 C    -1.18530   -2.20527   -0.56735
 C    -0.65022   -0.92314   -0.54934
 Cl   -2.52849   -2.53328   -1.62604
 Cl   -1.28872   -4.81046    0.27116
 H     4.11443    1.86383    0.22723
 H     0.66563    6.13552   -0.69791
 H    -1.45077    2.86455    1.01835
 H    -1.64740    2.12096   -0.55858
 H    -1.55158    1.10677    0.87335
 H     1.84712   -1.39929    1.67403
 H     0.86479   -3.66889    1.68443
 H    -1.07929   -0.18305   -1.20659
