31
DFT_K006_.xyz
 N    -0.79898    2.15131   -1.73008
 C    -1.04531    1.13343   -0.89277
 C    -2.36738    0.84492   -0.52805
 C    -3.36994    1.64129   -1.05655
 N    -3.11893    2.65525   -1.88776
 C    -1.83808    2.84889   -2.17677
 C    -4.82201    1.40918   -0.72630
 O    -5.73907    2.05030   -1.15516
 O    -4.98262    0.36931    0.13034
 C     0.11490    0.36223   -0.40226
 C     1.39704    0.64873   -0.87648
 C     2.50129   -0.06147   -0.43729
 C     2.36267   -1.08868    0.49785
 C     1.07652   -1.37439    0.98147
 C    -0.02170   -0.66451    0.53957
 Cl    0.86171   -2.64425    2.16006
 O     3.38285   -1.83692    0.97421
 C     4.68124   -1.61392    0.47350
 C     5.53472   -0.56310    1.11806
 C     5.78458   -2.03215    1.37856
 H    -2.61911    0.03417    0.13385
 H    -1.61360    3.66693   -2.85169
 H    -5.93409    0.28763    0.28830
 H     1.51706    1.44225   -1.59797
 H     3.48109    0.18634   -0.81481
 H    -0.98501   -0.92599    0.94930
 H     4.77196   -1.79503   -0.59074
 H     6.23009   -0.01404    0.49881
 H     5.08407    0.00818    1.91669
 H     5.49364   -2.41842    2.34439
 H     6.65244   -2.50185    0.93921
