32
DFT_K020_.xyz
 N    -2.21337    2.03191    0.42470
 C    -1.83038    0.92046   -0.21836
 C    -2.69134    0.33224   -1.15419
 C    -3.91475    0.94306   -1.37577
 N    -4.29055    2.05166   -0.73435
 C    -3.41055    2.53185    0.13536
 C    -4.90963    0.38771   -2.36231
 O    -5.98372    0.86137   -2.60169
 O    -4.44535   -0.73583   -2.96601
 C    -0.49912    0.36878    0.10965
 C     0.04724   -0.72573   -0.56107
 C     1.29882   -1.22122   -0.22818
 C     2.04586   -0.63894    0.79633
 C     1.49965    0.46725    1.46842
 C     0.25706    0.95877    1.13074
 Cl    2.40844    1.22395    2.75057
 O     3.26955   -1.05957    1.18520
 C     3.80913   -2.24132    0.61950
 C     4.49859   -2.13253   -0.75410
 O     5.73696   -2.62462   -0.19734
 C     5.21069   -2.55043    1.14919
 H    -2.43456   -0.56585   -1.68921
 H    -3.69788    3.43102    0.66802
 H    -5.13831   -1.02484   -3.57707
 H    -0.49060   -1.20574   -1.36515
 H     1.69565   -2.06212   -0.77632
 H    -0.14584    1.80884    1.65847
 H     3.09533   -3.06039    0.70960
 H     4.12604   -2.77710   -1.55223
 H     4.58550   -1.10403   -1.11406
 H     5.63989   -1.72253    1.71723
 H     5.33954   -3.48663    1.69241
