40
DFT_K105_.xyz
 N    -2.62733    2.13307   -1.16793
 C    -2.32568    0.88147   -0.79401
 C    -3.33831   -0.08728   -0.75011
 C    -4.62045    0.30440   -1.09626
 N    -4.91560    1.55320   -1.46598
 C    -3.89180    2.39743   -1.48055
 C    -5.77524   -0.66315   -1.07756
 O    -6.90866   -0.39351   -1.35801
 O    -5.38470   -1.90704   -0.69825
 C    -0.92068    0.59313   -0.44672
 C    -0.49537   -0.66149   -0.00762
 C     0.83040   -0.90217    0.31572
 C     1.79073    0.10774    0.20720
 C     1.35873    1.37286   -0.23403
 C     0.03908    1.60826   -0.55186
 Cl    2.52129    2.66718   -0.38332
 O     3.10037   -0.02915    0.47884
 C     3.64736   -1.27708    0.95156
 C     5.12922   -1.25724    0.59669
 C     5.83711   -2.51333    1.11631
 C     5.62539   -2.70022    2.62154
 C     4.13640   -2.69611    2.97883
 C     3.43515   -1.43637    2.45592
 H    -3.14767   -1.10671   -0.46194
 H    -4.10971    3.41619   -1.78010
 H    -6.17962   -2.45905   -0.71336
 H    -1.19652   -1.47637    0.09694
 H     1.11437   -1.88412    0.65934
 H    -0.26588    2.58693   -0.88751
 H     3.16792   -2.10011    0.41288
 H     5.24109   -1.16560   -0.48451
 H     5.57589   -0.36346    1.04012
 H     6.90203   -2.45463    0.88546
 H     5.45551   -3.39201    0.58587
 H     6.12663   -1.88967    3.15990
 H     6.09038   -3.62994    2.95524
 H     4.00255   -2.76757    4.05959
 H     3.65889   -3.58379    2.55058
 H     3.84514   -0.55011    2.94783
 H     2.37059   -1.46443    2.69211
