23
DFT_K080_.xyz
 N     0.46130    1.68035    0.52906
 C     0.40441    0.39781    0.14633
 C    -0.83755   -0.19143   -0.12119
 C    -1.96712    0.60085    0.00795
 N    -1.90509    1.88087    0.38034
 C    -0.68618    2.34501    0.62603
 C    -3.34852    0.06178   -0.26134
 O    -4.36587    0.68744   -0.16609
 O    -3.31400   -1.24297   -0.63366
 C     1.68253   -0.34143    0.03567
 C     2.84042    0.18736    0.61664
 C     4.04621   -0.49172    0.53164
 C     4.12072   -1.70635   -0.14201
 C     2.97925   -2.23720   -0.73160
 C     1.77022   -1.56218   -0.64215
 H    -0.93139   -1.22599   -0.40428
 H    -0.61730    3.38132    0.93638
 H    -4.23211   -1.50983   -0.78421
 H     2.77549    1.13400    1.13163
 H     4.93092   -0.07234    0.99157
 H     5.06252   -2.23412   -0.21024
 H     3.03059   -3.17615   -1.26604
 H     0.89943   -1.98475   -1.12300
