23
DFT_K008_.xyz
 N    -0.62002    2.46554    0.80385
 C    -0.68994    1.19897    0.37542
 C    -1.92985    0.64508    0.03826
 C    -3.04770    1.45726    0.15381
 N    -2.97334    2.72092    0.57394
 C    -1.75606    3.15202    0.88063
 C    -4.42925    0.95877   -0.18802
 O    -5.43314    1.60829   -0.11907
 O    -4.40696   -0.33563   -0.59233
 C     0.58127    0.44299    0.29168
 C     1.73972    0.96215    0.87833
 C     2.93362    0.26780    0.81582
 C     3.00532   -0.95789    0.16072
 C     1.85845   -1.48296   -0.43542
 C     0.66101   -0.78506   -0.36608
 Cl    1.89076   -3.00511   -1.27938
 Cl    4.52473   -1.79671    0.10278
 H    -2.03626   -0.37518   -0.28917
 H    -1.67818    4.17542    1.22869
 H    -5.32218   -0.57985   -0.79164
 H     1.68891    1.91521    1.38170
 H     3.82594    0.66781    1.27452
 H    -0.20053   -1.21699   -0.85128
