27
DFT_K012_.xyz
 N    -0.97317    1.89565    0.35896
 C    -0.96843    0.61906   -0.04633
 C    -2.17725   -0.01145   -0.36514
 C    -3.33970    0.73516   -0.25631
 N    -3.33886    2.00926    0.13982
 C    -2.14677    2.51599    0.42947
 C    -4.69064    0.14843   -0.57719
 O    -5.73310    0.73417   -0.50524
 O    -4.59474   -1.14799   -0.96654
 C     0.34041   -0.06811   -0.12378
 C     0.48940   -1.32570   -0.71620
 C     1.72984   -1.93866   -0.76789
 C     2.85803   -1.32278   -0.23220
 C     2.71009   -0.05776    0.34911
 C     1.47348    0.55954    0.40226
 Cl    4.10671    0.77092    0.99416
 O     4.07321   -1.92868   -0.35157
 C     4.53365   -2.64230    0.80257
 H    -2.22512   -1.04124   -0.67514
 H    -2.12687    3.54827    0.75908
 H    -5.49678   -1.44666   -1.15150
 H    -0.35653   -1.83237   -1.15675
 H     1.85315   -2.90384   -1.23920
 H     1.37546    1.53801    0.84550
 H     5.50690   -3.04717    0.53862
 H     4.63583   -1.98003    1.66311
 H     3.85056   -3.45970    1.04618
