23
DFT_K089_.xyz
 N     0.03637    1.98948    0.59172
 C    -0.06798    0.70668    0.21680
 C    -1.32934    0.15953   -0.04740
 C    -2.42793    0.99648    0.08486
 N    -2.31940    2.27512    0.44705
 C    -1.08380    2.69774    0.68548
 C    -3.83046    0.50563   -0.17303
 O    -4.82120    1.17396   -0.08604
 O    -3.84717   -0.80427   -0.52114
 C     1.19825   -0.05757    0.14360
 C     2.33091    0.42577    0.81590
 C     3.54357   -0.23887    0.79705
 C     3.63703   -1.41832    0.07652
 C     2.56192   -1.94025   -0.61721
 C     1.36517   -1.24915   -0.56681
 F     0.34062   -1.77154   -1.27102
 F     4.80515   -2.07891    0.04371
 H    -1.45798   -0.86793   -0.33422
 H    -0.97542    3.73303    0.98741
 H    -4.77468   -1.03875   -0.66915
 H     2.22978    1.35286    1.35895
 H     4.40552    0.13986    1.32593
 H     2.64655   -2.85291   -1.18704
