31
DFT_K007_.xyz
 C    -2.14565   -0.57009   -0.12776
 C    -2.40517   -1.89420   -0.51150
 C    -1.36158   -2.75955   -0.79533
 C    -0.04726   -2.32915   -0.70347
 C     0.23636   -1.01861   -0.31843
 C    -0.82335   -0.14861   -0.03637
 C     1.64432   -0.57313   -0.21834
 C     2.02328    0.62391    0.40220
 C     3.37315    0.93619    0.42905
 N     4.30338    0.14106   -0.10254
 C     3.84883   -0.97685   -0.65596
 N     2.58299   -1.37284   -0.74248
 C     3.88116    2.20229    1.06950
 O     5.03012    2.53694    1.12404
 O     2.86975    2.94283    1.59103
 Cl   -4.05037   -2.45103   -0.63635
 O    -3.22002    0.21872    0.12926
 C    -3.00447    1.53401    0.57895
 C    -2.81125    2.62535   -0.43277
 C    -4.11954    2.48136    0.31277
 H    -1.58800   -3.77448   -1.08800
 H     0.76623   -3.00063   -0.92860
 H    -0.63115    0.87762    0.23031
 H     1.30801    1.28551    0.86008
 H     4.59086   -1.63913   -1.08680
 H     3.27942    3.72877    1.98036
 H    -2.48059    1.58952    1.52629
 H    -2.15507    3.44823   -0.18578
 H    -2.80292    2.32971   -1.47195
 H    -4.96128    2.08921   -0.23892
 H    -4.36826    3.20275    1.07739
