35
DFT_K104_.xyz
 N     2.99379   -1.64456   -1.67494
 C     1.86458   -0.99388   -1.24384
 C     1.24294   -0.02767   -2.07082
 C     0.12305    0.67523   -1.68544
 C    -0.46810    0.47144   -0.43466
 C    -1.64817    1.24899   -0.02809
 N    -2.21558    2.04277   -0.95007
 C    -3.28030    2.74895   -0.58497
 N    -3.86816    2.76285    0.60494
 C    -3.30384    1.97883    1.52795
 C    -2.18805    1.20280    1.26641
 C    -3.95779    1.99099    2.88502
 O    -4.93276    2.62341    3.17863
 O    -3.30856    1.18650    3.76498
 C     0.10086   -0.50823    0.38292
 C     1.21064   -1.23147   -0.00922
 Cl    1.68902   -2.54178    1.06842
 C     4.07754   -2.14463   -0.80121
 C     5.32106   -2.11475   -1.69416
 C     4.74614   -2.31958   -3.09715
 C     3.47533   -1.47789   -3.05058
 H     1.67078    0.18348   -3.03754
 H    -0.30587    1.41022   -2.34961
 H    -3.72022    3.38249   -1.34700
 H    -1.75796    0.59778    2.04639
 H    -3.79085    1.25171    4.60169
 H    -0.34019   -0.75918    1.33546
 H     3.86932   -3.15964   -0.46401
 H     4.18367   -1.51701    0.08232
 H     5.81120   -1.14127   -1.63088
 H     6.04698   -2.87355   -1.40674
 H     5.41942   -2.00480   -3.89258
 H     4.49844   -3.37025   -3.25847
 H     3.71310   -0.42876   -3.26810
 H     2.71731   -1.80154   -3.76528
