26
DFT_K063_.xyz
 N     0.14872    1.60566    0.62146
 C     0.06352    0.36917    0.11273
 C    -1.17489   -0.11251   -0.33082
 C    -2.26664    0.73609   -0.23925
 N    -2.17449    1.97062    0.25924
 C    -0.96457    2.33058    0.66903
 C    -3.63876    0.31646   -0.70056
 O    -4.61580    1.00979   -0.68423
 O    -3.64729   -0.96389   -1.15100
 C     1.30442   -0.43700    0.05394
 C     1.38635   -1.60481   -0.71113
 C     2.56699   -2.33103   -0.74697
 C     3.67323   -1.90852   -0.02044
 C     3.61797   -0.74727    0.75189
 C     2.43010   -0.02252    0.77201
 C     4.80586   -0.29843    1.56270
 H    -1.29533   -1.10867   -0.72107
 H    -0.87235    3.32743    1.08493
 H    -4.55586   -1.15210   -1.42623
 H     0.54448   -1.93994   -1.29956
 H     2.62818   -3.22677   -1.35041
 H     4.59059   -2.48274   -0.05815
 H     2.36075    0.88807    1.34972
 H     4.83692    0.78702    1.65321
 H     4.76527   -0.70867    2.57493
 H     5.74196   -0.63020    1.11391
