43
DFT_K092_.xyz
 O    -2.19949    0.62442    0.09653
 C    -2.81809    1.07396    1.30849
 C    -4.20741    1.60477    0.99216
 N    -4.19500    2.92194    0.36510
 C    -5.30801    3.79925    0.73948
 C    -6.59379    3.49938   -0.02777
 O    -6.36724    3.55298   -1.43010
 C    -5.34568    2.64338   -1.83044
 C    -4.03613    2.92335   -1.09808
 C    -0.95823    0.10480    0.14055
 C    -0.19244   -0.02707    1.30077
 C     1.07819   -0.57973    1.25186
 C     1.63263   -1.01974    0.04957
 C     2.98222   -1.61374   -0.03571
 N     3.39667   -2.03647   -1.23813
 C     4.61069   -2.57152   -1.32084
 N     5.48045   -2.74312   -0.33345
 C     5.07302   -2.32278    0.86659
 C     3.83040   -1.74694    1.07217
 C     6.05321   -2.51318    1.99504
 O     7.14102   -3.00483    1.89087
 O     5.55831   -2.05694    3.17403
 C     0.86415   -0.88683   -1.11468
 C    -0.39847   -0.33814   -1.07099
 Cl   -1.32399   -0.19115   -2.54513
 H    -2.89471    0.23113    2.00265
 H    -2.21484    1.86453    1.76033
 H    -4.74550    0.83911    0.41689
 H    -4.72436    1.69128    1.94993
 H    -5.00942    4.82824    0.51923
 H    -5.47953    3.73137    1.81541
 H    -6.98880    2.51097    0.24903
 H    -7.36084    4.24302    0.19082
 H    -5.22212    2.77307   -2.90549
 H    -5.68042    1.61228   -1.65103
 H    -3.67810    3.91398   -1.39136
 H    -3.27714    2.19867   -1.38299
 H    -0.58755    0.30321    2.24847
 H     1.62906   -0.66333    2.17699
 H     4.92329   -2.90438   -2.30392
 H     3.54745   -1.41819    2.05731
 H     6.24417   -2.21610    3.83829
 H     1.27300   -1.22179   -2.05492
