22
DFT_K111_.xyz
 N     0.46164    1.69844    0.41049
 C     0.38942    0.39636    0.10667
 C    -0.85602   -0.20486   -0.10642
 C    -1.98044    0.60034   -0.01111
 N    -1.90574    1.89934    0.28289
 C    -0.68220    2.37315    0.48473
 C    -3.36842    0.05427   -0.23020
 O    -4.38007    0.69204   -0.16286
 O    -3.34433   -1.27110   -0.51976
 C     1.65928   -0.35549    0.02214
 C     1.76613   -1.57781   -0.64272
 C     2.99042   -2.22469   -0.67743
 C     4.07456   -1.63060   -0.04305
 N     3.99711   -0.46409    0.59917
 C     2.81894    0.15173    0.62312
 H    -0.95562   -1.25539   -0.32256
 H    -0.60534    3.42526    0.73298
 H    -4.26520   -1.54304   -0.64274
 H     0.91353   -2.01242   -1.14619
 H     3.10737   -3.16817   -1.19194
 H     5.04735   -2.10885   -0.05295
 H     2.77201    1.09809    1.14470
