23
DFT_K001_.xyz
 N     0.00549    2.29480    0.79948
 C    -0.09494    1.00834    0.44091
 C    -1.35215    0.44704    0.19245
 C    -2.45642    1.27765    0.32084
 N    -2.35305    2.56158    0.66499
 C    -1.11965    2.99679    0.89034
 C    -3.85710    0.77485    0.07618
 O    -4.84953    1.44304    0.14137
 O    -3.86760   -0.54442   -0.23249
 C     1.17781    0.24838    0.37384
 C     2.28271    0.69952    1.10640
 C     3.48800    0.01963    1.08476
 C     3.63215   -1.13009    0.31840
 C     2.55783   -1.59055   -0.42741
 C     1.34829   -0.90549   -0.39421
 F     0.34007   -1.37043   -1.14922
 Cl    2.70989   -3.01675   -1.41283
 H    -1.47365   -0.58551   -0.08005
 H    -1.01695    4.03661    1.17796
 H    -4.79312   -0.78837   -0.37722
 H     2.16610    1.60011    1.68922
 H     4.32381    0.38292    1.66571
 H     4.56635   -1.67142    0.28918
