30
DFT_K075_.xyz
 N    -0.28448    2.60131    0.07029
 C    -0.36633    1.26229    0.08372
 C    -1.60961    0.61110    0.15943
 C    -2.72799    1.45179    0.12549
 N    -2.64633    2.77855    0.07609
 C    -1.41728    3.28604    0.07310
 C    -4.14547    0.92507    0.17273
 O    -4.94007    1.20212    1.02582
 O    -4.41933    0.15746   -0.90184
 C    -1.78381   -0.88720    0.33964
 O    -2.84034   -1.20954    1.22364
 C    -2.53191   -1.01535    2.59618
 C     0.93882    0.55662    0.02053
 C     2.02942    1.06265    0.73342
 C     3.26117    0.43712    0.67366
 C     3.44087   -0.69425   -0.11721
 C     2.36768   -1.19226   -0.85412
 C     1.12756   -0.56951   -0.77824
 Cl    2.54055   -2.58392   -1.88527
 Cl    5.00609   -1.44720   -0.16854
 H    -1.33683    4.36667    0.06492
 H    -5.33097   -0.15659   -0.80222
 H    -2.04549   -1.35397   -0.61097
 H    -0.84988   -1.33423    0.68854
 H    -1.67029   -1.62315    2.89273
 H    -2.32498    0.03409    2.82570
 H    -3.40597   -1.33008    3.16044
 H     1.90274    1.95357    1.32994
 H     4.10024    0.82045    1.23541
 H     0.32384   -0.96023   -1.38368
