23
 energy: -45.826531021810 gnorm: 0.000585834853 xtb: 6.7.1 (edcfbbe)
N            1.17253470997711        0.37152119586904        0.47678336408263
C            1.08042654955097       -0.91622373566266        0.14374093748858
C           -0.16837705114405       -1.48909724722048       -0.12048213044993
C           -1.27167095802195       -0.64783566325905       -0.04071963455881
N           -1.15759208761349        0.63961096286463        0.27180690417572
C            0.06016377363389        1.07602610950818        0.52185708502712
C           -2.65871973177921       -1.14301446393834       -0.30873072760323
O           -3.62628482636031       -0.45049142325740       -0.45035152133790
O           -2.70707356062465       -2.48311885621091       -0.38471816089400
C            2.33535575172132       -1.67491186841275        0.08984967444815
C            2.46442891917544       -2.83600305785240       -0.67078071150259
C            3.66631588000046       -3.51978151039052       -0.70503616395587
C            4.75533636819251       -3.06724030928424        0.02004848108648
C            4.61534300112226       -1.90994574552827        0.76707253680697
C            3.43120134084818       -1.20364369237668        0.81089903183780
F            5.67060201778488       -1.46041657187464        1.47348795901298
H           -0.28852770460420       -2.53238594136200       -0.35639984727499
H            0.15739398686093        2.12034580825661        0.78873570173021
H           -3.61878296775087       -2.76970600225099       -0.55419627194616
H            1.63367945759571       -3.19612772981131       -1.25734877695348
H            3.75837608680157       -4.41404877073407       -1.30220920683527
H            5.69879351029514       -3.58935304661900        0.00893302756807
H            3.34603753433911       -0.30052844045305        1.39275845004719
