23
 energy: -45.648975994919 gnorm: 0.000564558296 xtb: 6.7.1 (edcfbbe)
N            1.18602076385499        0.35971943371243        0.47931980035027
C            1.08992339171091       -0.92437744410773        0.13424363027247
C           -0.16079752775038       -1.49205014572326       -0.13241102548083
C           -1.26228954970449       -0.64985193585555       -0.03982517164491
N           -1.14432189306628        0.63467982961890        0.28348413507537
C            0.07519650663850        1.06630960584463        0.53289054890011
C           -2.65156585997055       -1.14048651687733       -0.30420197409187
O           -3.61872292726686       -0.44541622359845       -0.43619146499344
O           -2.70310727286615       -2.48007362832379       -0.38678117491555
C            2.34115112427348       -1.68857465269416        0.07131497886038
C            2.46996815435958       -2.82803598839440       -0.72042179991787
C            3.67010431746771       -3.51424845618065       -0.75661647183775
C            4.75098525928234       -3.08644481490397       -0.00490616684573
C            4.62042319762750       -1.94874186198229        0.77826127996900
C            3.43153417181962       -1.24488931266744        0.81777725304941
Cl           5.96397533308713       -1.40293615771033        1.71727453846887
H           -0.28256528264296       -2.53289077235528       -0.37822834357545
H            0.17551841838396        2.10839758851350        0.80721603816593
H           -3.61639972002977       -2.76404050264190       -0.55208616060208
H            1.64454894365693       -3.16613065744904       -1.32747794661736
H            3.76854449151666       -4.39187158178310       -1.37725540807451
H            5.68647908470379       -3.62255833514145       -0.02807622710519
H            3.32933687491513       -0.35601746929826        1.41897713259075
