31
 energy: -58.164515827334 gnorm: 0.000701964641 xtb: 6.7.1 (edcfbbe)
N            1.19357467522981        0.09169015223484       -0.89624085785248
C            0.91370825284453       -0.97317654939937       -0.13954448000993
C           -0.42013004564575       -1.30514129403354        0.13214933667255
C           -1.39662714920143       -0.47756092509292       -0.40559662392169
N           -1.09593994275612        0.58630336819086       -1.14664794476098
C            0.18669464242459        0.80646003152631       -1.35308256293443
C           -2.85257209636416       -0.73270207245614       -0.17379668536972
O           -3.73652112067828        0.04825783778411       -0.38597025407481
O           -3.07407220201995       -1.96218812422806        0.31859915834165
C            2.05267284044534       -1.75007257902606        0.34823407987764
C            3.31362420919293       -1.52624999618346       -0.20395445173015
C            4.41410448868517       -2.24562708763187        0.21224408227025
C            4.29341561237398       -3.21440714657490        1.20602561232831
C            3.02684878583268       -3.42401437166972        1.77226774957829
C            1.92546168488499       -2.71043496383612        1.35376995266263
Cl           2.86723486199276       -4.60480975376987        3.02113883994803
O            5.30539114520680       -3.97700393920867        1.67542455319657
C            6.57451352016868       -3.82594870813768        1.10880225654737
C            7.44763595538054       -2.68665729660166        1.54780696177374
C            7.73375388609414       -4.08299564909367        2.01576817697829
H           -0.69747848071249       -2.16564438280378        0.71535667995751
H            0.43927610924480        1.66463172759759       -1.96286457377837
H           -4.02553423209613       -2.09573612085961        0.45443275074408
H            3.41141345710221       -0.77553169737258       -0.97109481314243
H            5.37810242349618       -2.05214301158413       -0.23002194157356
H            0.97823436165068       -2.90063594188041        1.83129288180183
H            6.62697626359026       -4.15895651369150        0.07562903298433
H            8.10431451844963       -2.23513004036837        0.82080200636372
H            7.03436878619264       -1.99267787864339        2.26320475765003
H            7.50446485300436       -4.32538960652235        3.04120077373348
H            8.58807993598678       -4.60474746666676        1.61542554573251
