23
 energy: -49.696899153857 gnorm: 0.000712384355 xtb: 6.7.1 (edcfbbe)
N            1.17655858775398        0.35422774144244        0.52003985312336
C            1.08823114693508       -0.92371182440032        0.14816714943414
C           -0.15830609999228       -1.48907449772793       -0.14176746873075
C           -1.26333247951442       -0.65185506102130       -0.04226220922226
N           -1.15280968435484        0.62552848081123        0.30956028365958
C            0.06292261787912        1.05600512277002        0.57846335469882
C           -2.64904746993682       -1.14146026078038       -0.33050646681354
O           -3.61694566718151       -0.44604665695142       -0.45294109755828
O           -2.69294637410170       -2.47781119990914       -0.44984915688450
C            2.34518686954415       -1.67726040433188        0.08500811496257
C            3.45219693062285       -1.21009268732939        0.79482600727478
C            4.64887594321487       -1.89486878528874        0.76051571317899
C            4.76657529104417       -3.05509316294997        0.00668152079635
C            3.66978607444526       -3.52134496621204       -0.71627724944892
C            2.46679129238687       -2.83851283790677       -0.67431210826605
Cl           3.80384236433555       -4.94984863218624       -1.67085988265353
Cl           6.26045283827196       -3.90401871780894       -0.03682974922053
H           -0.27749007701858       -2.52424949720413       -0.41048778318268
H            0.15713980730755        2.09187917067616        0.87739501901479
H           -3.60259358548892       -2.76271229277100       -0.63302287959426
H            3.35176080121591       -0.30358532629133        1.36970051768407
H            5.50314863841665       -1.53756766264523        1.31330549200143
H            1.64103223421537       -3.21105604198450       -1.25877697425330
