26
 energy: -48.821298827635 gnorm: 0.000567203597 xtb: 6.7.1 (edcfbbe)
N            1.20214823319861        0.31471343159362        0.55330765936674
C            1.09927117474515       -0.95797493469245        0.16561879943148
C           -0.15560658374867       -1.49926150546630       -0.13889458576114
C           -1.24745850858361       -0.64653269627593       -0.04066045286660
N           -1.12209909051205        0.62430284129956        0.33231751103524
C            0.09858450254957        1.03069435653637        0.61737621254288
C           -2.63423878127264       -1.10898079739144       -0.36027741052573
O           -3.58796343115631       -0.39700434457921       -0.50002929765367
O           -2.70221605138968       -2.44480537808751       -0.48550261823882
C            2.34146307786873       -1.73145352324164        0.09655875282772
C            2.44408509349582       -2.91877250590557       -0.62553540194219
C            3.63941044175760       -3.61029340151311       -0.66137828756458
C            4.76556789571539       -3.15886711206537        0.01608192417919
C            4.64834038756906       -1.96600531503778        0.73125664819700
C            3.46605808016338       -1.25592165340150        0.77155888205792
Cl           6.01724752220763       -1.35377465214839        1.59501393540574
C            6.05293803514506       -3.91418498896055       -0.01481820258066
H           -0.28994718151630       -2.52857436256860       -0.42271326017313
H            0.20574435288617        2.05992696521743        0.93477247025850
H           -3.61437433857379       -2.70921304377236       -0.68660911656749
H            1.60036391160774       -3.29778843289089       -1.18018510196270
H            3.70559623391878       -4.52603952409129       -1.23013229364792
H            3.39237699771628       -0.33237371702335        1.32254416414023
H            6.85743524440982       -3.27396174641389       -0.37369911349354
H            6.31968592823668       -4.23960618899189        0.99010153008215
H            5.97688685356294       -4.78510777012711       -0.65970334654840
