27
 energy: -52.876595780338 gnorm: 0.000439393913 xtb: 6.7.1 (edcfbbe)
N            1.15168415863751        0.34344555333161        0.55292899343400
C            1.05141112779672       -0.93622317876663        0.18416129797951
C           -0.19798692346002       -1.46942932309669       -0.15900675205887
C           -1.28612682253867       -0.60873558176224       -0.10205662154560
N           -1.16246113822054        0.66731744989049        0.25543963393919
C            0.05322843945094        1.06956465190264        0.56591176597360
C           -2.66906664156640       -1.06829172578100       -0.44040908429557
O           -3.63136703514379       -0.36040660246080       -0.53676289150552
O           -2.72576343249919       -2.39692373407114       -0.63413234122839
C            2.28275691367214       -1.72389433770096        0.18363117687230
C            2.39671189983463       -2.95894967513830       -0.45748247925324
C            3.58089551771784       -3.65144710989326       -0.40750856317586
C            4.70997223483857       -3.17415243125644        0.27784690674818
C            4.59103052488927       -1.92818823885100        0.90556454070170
C            3.39998301757669       -1.22670486527820        0.84841913860133
Cl           5.87576442318592       -1.15073955674083        1.78992021875493
O            5.75937757417989       -4.01718768186837        0.21625280615885
C            6.99600869804606       -3.76275592882719        0.84878123486027
H           -0.33124486288581       -2.50008375078896       -0.43770718553063
H            0.16017494009221        2.10457878985286        0.86470413763558
H           -3.63596977456640       -2.65811265983535       -0.84671852950658
H            1.57032204681486       -3.37398130089211       -1.01216307998351
H            3.68524180968044       -4.60507471214190       -0.90113452387133
H            3.32268601857459       -0.26630714167097        1.33330661459680
H            7.48286964492924       -2.87308312978684        0.44511623436631
H            6.88576228153236       -3.66584845808131        1.93037304377591
H            7.60639535943036       -4.63803532028733        0.62700430755731
