26
 energy: -49.962913741076 gnorm: 0.000196759527 xtb: 6.7.1 (edcfbbe)
N            1.18090389502271        0.33037847825020        0.54521362176811
C            1.07301618370603       -0.94522511349205        0.16848808805251
C           -0.18137550456049       -1.47807029263186       -0.15414622599943
C           -1.26873591503681       -0.61854053174718       -0.07284207523477
N           -1.13782211653161        0.65662243824587        0.28542312610933
C            0.08257985473254        1.05700858391684        0.57847819301478
C           -2.65772965402005       -1.07876436636916       -0.38298184837549
O           -3.61860074023913       -0.36937087759232       -0.48389864225235
O           -2.72224891165504       -2.41132922945284       -0.54492235909923
C            2.30516306814343       -1.73793997784632        0.14631240059823
C            3.36532897469306       -1.33477554980705        0.94780339373815
C            4.52467032621411       -2.09869654077013        0.94998604852494
C            4.60962763546366       -3.24789534978809        0.13396779359790
C            3.56380585265221       -3.64420534311964       -0.68732507329252
C            2.41722526852324       -2.88101429806714       -0.66491243396072
O            5.81198715508707       -3.84036294861972        0.28764078627187
C            6.49618639288131       -3.09188335237475        1.18635157121162
C            5.78337395149750       -2.03000653925584        1.62586815092351
H           -0.31667124053857       -2.50982541329032       -0.42903194197615
H            0.19447772129818        2.09071883979037        0.87993729813164
H           -3.63629292672200       -2.67363449822694       -0.73872723993816
H            3.26969227596440       -0.44957529573419        1.55541457092108
H            3.65245252898430       -4.51515406162100       -1.31642828141472
H            1.59670570744650       -3.15686606651216       -1.30865741289331
H            7.48599792168397       -3.42860962519123        1.42741966504365
H            6.09511229531010       -1.28987306869236        2.33320882652841
