32
 energy: -62.227204194894 gnorm: 0.000383337266 xtb: 6.7.1 (edcfbbe)
N            0.44208788197758        0.41959584843941        1.04119591357944
C            0.73474364434174       -0.76577876225028        0.50175173568271
C           -0.17927676320708       -1.38884699225003       -0.35708490928798
C           -1.35725899475584       -0.70331803173013       -0.62494254780421
N           -1.62182588422863        0.48602813071165       -0.09117348202994
C           -0.70777133150926        0.97616797652915        0.72182388871502
C           -2.39743548812509       -1.26221868581196       -1.54424006023677
O           -3.31575632699921       -0.64751359938068       -2.00713892577979
O           -2.18438621444186       -2.56095817353255       -1.81411410555257
C            2.02555210389932       -1.35364957234688        0.86394119419498
C            2.60790922019202       -2.38969950810214        0.13944749036887
C            3.83567545125677       -2.90916363766330        0.50537024055810
C            4.51467679505512       -2.41635753549611        1.61528952981629
C            3.92656628557810       -1.36737009107855        2.34038711973349
C            2.71027557435599       -0.84171789428707        1.96958018425481
Cl           4.76437668876344       -0.74430314826318        3.71084680484159
O            5.71401244342535       -2.86169928938301        2.05861522507205
C            6.32995761809302       -3.93458887810872        1.40049597758645
C            7.01672476007115       -3.63853648394043        0.05494065144524
O            8.28416599491307       -4.02073013634831        0.58735986696920
C            7.75506741959872       -4.18661587177633        1.90362617909630
H           -0.00273268183872       -2.35862957353536       -0.78864210468386
H           -0.92294271787657        1.93694292646884        1.17148286685567
H           -2.87765099398715       -2.88999108950263       -2.40843256335097
H            2.12133940618744       -2.78913607214388       -0.73613820601368
H            4.27070215904220       -3.69936329186757       -0.08537831564226
H            2.27044629882520       -0.03084637019042        2.52695761028453
H            5.68134871443187       -4.81796466229168        1.39935227848358
H            6.72461648135526       -4.25987278097076       -0.79496011565162
H            6.99417487678042       -2.58080503116261       -0.22507969513195
H            8.10842139291595       -3.41226651884683        2.58887425334974
H            7.96092618590738       -5.17764319988974        2.31108602028003
