27
 energy: -65.571025616643 gnorm: 0.000455865843 xtb: 6.7.1 (edcfbbe)
N            1.10155086967769        0.42900152606912        0.49409632766766
C            1.08795859090368       -0.85775027870473        0.14794428825715
C           -0.12117725958329       -1.50676570880734       -0.11843493614090
C           -1.27660521726657       -0.73828463835104       -0.02335123753473
N           -1.24184300750330        0.54901236969518        0.30351257321077
C           -0.05354821079608        1.06149979442793        0.55108726125363
C           -2.63119420139229       -1.32127074991250       -0.28910741111783
O           -3.65221995509128       -0.69839261728531       -0.34784990300066
O           -2.57727438422209       -2.65132904879713       -0.46131114862978
C            2.38744544586547       -1.54164926101421        0.08520563069797
C            2.58206289111619       -2.68796288884353       -0.68299556328774
C            3.81682778852912       -3.30681983482367       -0.70484444307405
C            4.86883076626483       -2.78986132532737        0.03467261567733
C            4.69292299226991       -1.63095579072940        0.79010530211143
C            3.45365454215827       -1.01427660240644        0.80956018379757
Cl           6.00557551743976       -0.96499703771548        1.68472535729907
O            6.11221138645091       -3.43213671305819       -0.05714379221606
C            6.62432472171310       -4.02699029904394        1.01179216300085
F            7.75704092861924       -3.45434121051265        1.42805399854991
F            5.80457653906784       -4.08164458035222        2.06635854692510
F            6.94596378400268       -5.29533788848208        0.71997386199931
H           -0.17616724347840       -2.55286839601575       -0.36468861016602
H           -0.02243062588822        2.10627539538851        0.83126473218285
H           -3.46841265899046       -2.99955023710445       -0.62506651972554
H            1.78075620985637       -3.09286757588535       -1.27991260223727
H            3.98676089448171       -4.19244426253637       -1.29640276383103
H            3.30303889579557       -0.11446213987148        1.38388608833152
