26
 energy: -61.493542356028 gnorm: 0.000967667485 xtb: 6.7.1 (edcfbbe)
N            1.19137279558408        0.36085598319201        0.42402029881775
C            1.07651613679210       -0.93296673891543        0.12646537357916
C           -0.18077252309600       -1.49793757918237       -0.10422359752034
C           -1.27331571349916       -0.63955956598814       -0.02997277257685
N           -1.13749344598156        0.65169809938770        0.25013495669652
C            0.08870070635617        1.08111392181541        0.46994377440199
C           -2.67200481430299       -1.12388078285318       -0.26397465879104
O           -3.64770138132121       -0.43005289148486       -0.28615005363989
O           -2.71687120215864       -2.45178811751596       -0.45428365255930
C            2.32363339524147       -1.71071048929480        0.07608483561046
C            2.42082735042404       -2.90925963351006       -0.62846211235570
C            3.61246932936657       -3.60693953086491       -0.64766268458283
C            4.72286545582840       -3.12615100696645        0.03534412967432
C            4.63381459653016       -1.92060523543949        0.73422515820568
C            3.43997512632717       -1.21972247479423        0.74801837419574
Cl           5.99205888080343       -1.29076931195432        1.58146862802756
C            6.01560470807324       -3.90034046770759        0.01143885674801
F            5.91666331428623       -5.03443370140842       -0.69773379505472
F            7.02334402069826       -3.20419234847270       -0.53826317877626
F            6.42175911623998       -4.26368330367453        1.23863635610043
H           -0.31955382129764       -2.54488818857151       -0.31088084473233
H            0.20238165457990        2.13010839674897        0.71016891007657
H           -3.63468440014817       -2.73308350210266       -0.59872066622467
H            1.57836947251102       -3.29230617589457       -1.18147634798899
H            3.68898813167330       -4.53317478579491       -1.19596000231791
H            3.36239311048903       -0.28415056875276        1.27785471498681
