33
 energy: -59.206808153119 gnorm: 0.000451061844 xtb: 6.7.1 (edcfbbe)
N            0.88142052870951        0.34558498055670        0.75427883912581
C            0.91128850695783       -0.89122829647118        0.25113662339256
C           -0.27810345902088       -1.50053706889892       -0.16830705467437
C           -1.44476533919593       -0.75669974615205       -0.04540565687488
N           -1.45005691800853        0.47744276016400        0.45104408070172
C           -0.28200064772351        0.95699480349003        0.82817869334493
C           -2.76984988883797       -1.30076294166279       -0.47830335590776
O           -3.78427016927855       -0.66881972042351       -0.56375431128724
O           -2.70440628821389       -2.60945538993935       -0.77550534218831
C            2.22276177936527       -1.53923313803898        0.17572690078300
C            2.42626307679849       -2.77665520186316       -0.43434976243113
C            3.68594760322470       -3.33437771749665       -0.46782959341271
C            4.79473151332335       -2.69549870982966        0.09211618807679
C            4.58565408175757       -1.43727801565720        0.67343867170139
C            3.32445143914303       -0.87861441373346        0.71990476111847
Cl           5.90166018785564       -0.51219130418089        1.30704479633083
O            6.00366254599949       -3.28908269925942       -0.06760540141195
C            6.74079649359286       -3.83166997082405        1.04602909816528
C            8.09664911506744       -3.13994022940130        1.15701510843941
C            5.97888651719235       -3.81135235578909        2.36446034850898
H           -0.31290486308300       -2.49885655579571       -0.56763364280845
H           -0.27822522864175        1.95794594233388        1.24041301562704
H           -3.57949684193345       -2.92692787403765       -1.05018465774493
H            1.60829601608129       -3.31281669515286       -0.88805802653618
H            3.84983256062183       -4.29029948178510       -0.94154915154020
H            3.17459712389340        0.09066175889516        1.16867456255326
H            6.91078882600488       -4.88002252917644        0.75571189018778
H            7.98481576017151       -2.12274065488959        1.51938193536014
H            8.73304832918779       -3.69178023032696        1.84389831225726
H            8.57157442923154       -3.11194248360413        0.17984442626525
H            4.99351658108296       -4.25925194981518        2.24748217982833
H            6.53569547754301       -4.38574463104075        3.10006652770181
H            5.86257115112996       -2.79723024019644        2.73695899735297
