23
 energy: -53.918571048984 gnorm: 0.000696192640 xtb: 6.7.1 (edcfbbe)
N            0.88511889546230        1.16921604115606       -0.62475831711021
C           -0.36660567936876        1.18109071811982       -0.16067782070542
C           -0.95208696126882       -0.04362294333951        0.19219756254062
C           -0.19077716868136       -1.20313612015579        0.07175122839742
N            1.05711162050487       -1.16361811439301       -0.37096586288356
C            1.52510541543175        0.02489389461560       -0.70688610571646
C           -0.75971084977117       -2.54134439907892        0.47091046890913
O           -0.36837049760344       -3.19533445250544        1.39240440755963
O           -1.76845707692178       -2.88506069556648       -0.32441112637233
F           -2.21550056345515       -0.13581479042055        0.63242259869280
C           -1.02377104241718        2.48887250808982       -0.08679474900139
C           -0.49786431143185        3.53342943203082       -0.85201336993700
C           -1.07303386482073        4.78541495027914       -0.82179008502037
C           -2.18163335654516        5.02438549549474       -0.01927776617395
C           -2.70400271143422        3.99192031349157        0.75820394198188
C           -2.13079693999488        2.73197475163787        0.72457583360110
Cl          -4.06673451862188        4.27554502445099        1.77215191382773
Cl          -2.89605436964073        6.58548154836871        0.01577408968150
H            2.53778581039695        0.05791447846791       -1.08459913970297
H           -2.14370870860995       -3.74145291747335       -0.06052233042690
H            0.36600958510694        3.33842113407695       -1.46646053843433
H           -0.67034007793316        5.58951995893085       -1.41690876126681
H           -2.55291262838151        1.96343418372275        1.35032392756079
