26
 energy: -52.867996266013 gnorm: 0.000695157098 xtb: 6.7.1 (edcfbbe)
N            0.76901832352341       -1.15495973757401        0.00267772640816
C           -0.56134899707351       -1.15414153533685        0.02649160483258
C           -1.29682897036729        0.04523911121201        0.06480421945321
C           -0.52102847210685        1.20832133718764       -0.00642670455400
N            0.80601949558650        1.18851223647223       -0.07508907242502
C            1.38607974385343        0.00697822975516       -0.04382194062115
C           -1.12010865879919        2.58454948936827        0.01508678344490
O           -2.02775778853486        2.93455480476581        0.72376913520220
O           -0.50983574154055        3.39419253187975       -0.84182674476557
C           -2.78277470086371        0.08975934955852        0.19716427761288
C           -1.18110750879647       -2.49096886138044        0.04259322055621
C           -0.64565958182040       -3.47253878795784        0.87364386425765
C           -1.19441524192371       -4.73868150484879        0.90650579268316
C           -2.27612123693591       -5.05060211508775        0.09467338253861
C           -2.79680410243460       -4.08293441140103       -0.76125705735036
C           -2.25305665714909       -2.80943175762573       -0.78453590332066
Cl          -4.11987020035779       -4.45975392732628       -1.79933506180653
Cl          -2.95822364241436       -6.62949072718413        0.14046451582052
H            2.46745587336007       -0.01075392584181       -0.06382524865662
H           -0.86919261517973        4.29436866474674       -0.77874627755282
H           -3.07244040842171        0.92338081375336        0.83131809188708
H           -3.24616073944498        0.24109260692209       -0.77785656867281
H           -3.16067540345893       -0.83657055972648        0.62176039765200
H            0.20176226303694       -3.22819693782643        1.49381468979527
H           -0.78854289726393       -5.49654382747331        1.55752381800125
H           -2.65207213447315       -2.08445055903075       -1.47528094042018
