23
 energy: -45.649689095558 gnorm: 0.000647648744 xtb: 6.7.1 (edcfbbe)
N            1.18265176786248        0.36459755449032        0.47022554241662
C            1.08752111869042       -0.92295148599215        0.13314321074316
C           -0.16501860780178       -1.49075517256731       -0.12886737006596
C           -1.26606741476836       -0.64835995087880       -0.03961056668701
N           -1.14835076881013        0.63828889324969        0.27750135220990
C            0.07186201667265        1.07090312112328        0.52159027021394
C           -2.65541852384172       -1.14048111058660       -0.29877631692463
O           -3.62918062352549       -0.44882440761686       -0.39431578459519
O           -2.70091837003520       -2.47751716026209       -0.42123719848662
C            2.33833825399911       -1.68413011057600        0.07548979831429
C            2.45628837603378       -2.85946848809771       -0.66574282171884
C            3.65192553113598       -3.54986384165602       -0.70181445848057
C            4.74114418901967       -3.07066321436282        0.01157967223474
C            4.64510817381350       -1.89984720349589        0.75078089200219
C            3.45010849499910       -1.21114959621694        0.77436375802746
Cl           6.23212591880366       -3.93700945969126       -0.02764312584090
H           -0.28944172354420       -2.53245574153583       -0.36892524785991
H            0.17242135284634        2.11437455047579        0.79138134721094
H           -3.61514754617925       -2.76087170521976       -0.58255275806584
H            1.62106405647447       -3.23025517467808       -1.23992088218330
H            3.74526627513886       -4.45357572388964       -1.28268052304970
H            5.50110595562066       -1.53509128943030        1.29688795283703
H            3.35393209739601       -0.29583328258510        1.33671325774844
