26
 energy: -52.874941894813 gnorm: 0.000693800276 xtb: 6.7.1 (edcfbbe)
N           -0.12609657042813       -1.15881335099934       -0.20288063960459
C            1.18504336671415       -1.15080108815492        0.02610355261111
C            1.86033375990228        0.05925631157124        0.21192098283361
C            1.08837026647573        1.21250603681346        0.15447966649251
N           -0.22069731214102        1.18628800893395       -0.06024505819665
C           -0.77662062554995       -0.00430927002325       -0.23386520617309
C           -2.24581421653021       -0.04808252363551       -0.47857790980602
C            1.75036355426840        2.54199571001349        0.33724052137197
O            2.91089334816161        2.66614057020878        0.63813327715139
O            0.93425447711239        3.56705058229592        0.12804888848291
C            1.85596258069371       -2.45599623723221        0.04733155275871
C            1.22577317825067       -3.55413962335812       -0.53891426833017
C            1.83431362774815       -4.79173362060334       -0.54909097899458
C            3.08226494389720       -4.95902533103946        0.03657369628358
C            3.71163161366933       -3.87186133766004        0.63977818190626
C            3.10338647773774       -2.62875753399427        0.64226033492407
Cl           5.25021896329774       -4.06699086663658        1.39123108194660
Cl           3.83954513413480       -6.50242984419197        0.01972782000170
H            2.92225676262805        0.13237049342349        0.37053051054129
H           -2.45796209755103       -0.65994769579902       -1.35161268694972
H           -2.74183935760928       -0.50443144799874        0.37604813225851
H           -2.62195503497715        0.95974695509847       -0.62113322641059
H            1.40326290472677        4.40709861866176        0.25874224981017
H            0.25428735242947       -3.41339923426130       -0.98461495181066
H            1.35086224243383       -5.63897132834288       -1.00842997378938
H            3.60542066050469       -1.80853295308929        1.12950445069114
