34
 energy: -61.342137897225 gnorm: 0.000563251798 xtb: 6.7.1 (edcfbbe)
N            0.19934070940784        0.33399309375912        1.16749510137375
C            0.60561538068149       -0.77982706145798        0.55285559551736
C           -0.17987042563674       -1.34551040285966       -0.46000324330428
C           -1.35572692517323       -0.68396232386572       -0.78760340292084
N           -1.73325472559596        0.43606468743026       -0.17595478713710
C           -0.93405290135978        0.87672724007804        0.77509638083439
C           -2.26582535026353       -1.19309107261075       -1.85979837920490
O           -3.14653401580027       -0.56809379176084       -2.37960007657447
O           -1.98136839589532       -2.46233930900316       -2.19846251227080
C            1.87175103389889       -1.35774118486621        1.00040864956890
C            2.58551043121878       -2.28016337301853        0.24011744618118
C            3.78647874618563       -2.79425017436935        0.68958538545476
C            4.31025792581820       -2.41430732325762        1.92312923907532
C            3.58510678014751       -1.48125403126837        2.68497590977553
C            2.39717525378607       -0.95749631020329        2.23269160360256
Cl           4.22243522086512       -0.99868814549376        4.21280248400205
O            5.46345934812752       -2.86157909298584        2.45381437765539
C            6.24490621223034       -3.79647483143647        1.74494845680865
C            7.04495239056859       -3.26197847119668        0.53926054968964
C            8.33254404721745       -3.81506744403713        1.17015314364864
C            7.56411088634356       -4.09501004658187        2.47133055338590
H            0.09004698105888       -2.25891545238956       -0.96085747676720
H           -1.24071507553404        1.78112762383633        1.28487999320177
H           -2.59358069938860       -2.76294299411542       -2.88883469687085
H            2.22355182303908       -2.58953267656939       -0.72777949935596
H            4.32369932345359       -3.49370492477482        0.06990099288844
H            1.85605531973683       -0.23543208444142        2.82213115167917
H            5.65306336693028       -4.69171600103040        1.52064641858327
H            6.77527879731131       -3.66559891356875       -0.43444070346765
H            7.02254156656756       -2.17500140035618        0.49626219084853
H            9.15670405331813       -3.11140930165946        1.25172188804010
H            8.68664771185844       -4.72078981008623        0.68339397594789
H            7.75101415520428       -3.35796606143171        3.24794044611100
H            7.66012104967684       -5.09322863441277        2.88994284398900
