26
 energy: -44.769302190351 gnorm: 0.000696098834 xtb: 6.7.1 (edcfbbe)
N            1.15988538827907        0.25374834555897        0.70550179443285
C            1.05471617070230       -0.99751863130244        0.25329946102746
C           -0.19492344548435       -1.50107526882748       -0.13024968404552
C           -1.27525480221002       -0.63339061772403       -0.04654808351661
N           -1.14597813376201        0.61801130264775        0.38902103816800
C            0.06591020402724        0.98595044421730        0.75120847410916
C           -2.65246757577596       -1.05391644222955       -0.44972384746978
O           -3.61072052890216       -0.33537803453723       -0.50461567089899
O           -2.71045456218254       -2.36043858690211       -0.76093997687755
C            2.28495994526820       -1.79041674191139        0.19674236092657
C            2.40139361833885       -2.91101641466634       -0.62502181455854
C            3.58488555141272       -3.62320483449695       -0.65109460187786
C            4.65514506425733       -3.23465608021825        0.13670308934192
C            4.56179910826319       -2.11636080763923        0.95743193706750
C            3.37392112170746       -1.40211248875895        0.97504014601956
C            5.71146269861922       -1.69741194576223        1.82129596720417
H           -0.33124654054540       -2.51557630128693       -0.46290713883183
H            0.17480733997822        1.99749176683439        1.12154808620303
H           -3.61666340770279       -2.59497439504998       -1.01652095658558
H            1.58397883169494       -3.21232205649275       -1.26182993520623
H            3.67667423729638       -4.48685144804422       -1.29326466593069
H            5.57465710104305       -3.80149723939866        0.10855989864485
H            3.27112346744808       -0.52728618126273        1.59853756488647
H            5.76484622215048       -0.61345875060726        1.89170463099755
H            5.58168368655484       -2.09314588061791        2.82903539616966
H            6.65228923952253       -2.07491271152333        1.42767653060030
