23
 energy: -49.698225908221 gnorm: 0.000633256756 xtb: 6.7.1 (edcfbbe)
N            1.17155777805950        0.36224417584146        0.50182918216119
C            1.08043213886997       -0.91675150445768        0.13887022137051
C           -0.16534253595701       -1.48634384950359       -0.14136448389034
C           -1.27088441122918       -0.64880077265090       -0.04159348958622
N           -1.15839605122780        0.63083126728176        0.29930221100649
C            0.05796943405682        1.06476058609864        0.55969332451120
C           -2.65832532858237       -1.14152774816020       -0.31793828180119
O           -3.62442434284684       -0.44648264081049       -0.45446141692753
O           -2.70466940098443       -2.47989647938024       -0.40624862447204
C            2.33767143669607       -1.67439386936368        0.07326372320361
C            3.42138011885427       -1.23493323939701        0.83101784412755
C            4.61425194385106       -1.93406605656626        0.78808926086085
C            4.75727997906485       -3.06168115208973       -0.00765725677214
C            3.67498822735372       -3.47793128420808       -0.76736971474229
C            2.46680602846004       -2.80195906286208       -0.73368242060641
Cl           3.84058290062968       -4.86726600080853       -1.77612092346102
Cl           5.95068930129339       -1.39966884714029        1.73471636094741
H           -0.28274444000050       -2.52408768111109       -0.40135015864094
H            0.15319547157555        2.10324693705916        0.84858838377091
H           -3.61510730224334       -2.76800497540733       -0.58041067995412
H            3.31284074677472       -0.35299691498911        1.44083219553629
H            5.69120238614614       -3.59892267016315       -0.03931723547511
H            1.65090592138580       -3.14193821720970       -1.35060802116607
