30
 energy: -60.086090602977 gnorm: 0.000473678090 xtb: 6.7.1 (edcfbbe)
N            1.31285507962192        0.42165721353329       -0.01256542283046
C            1.24945590180232       -0.90952174454010        0.00484903760942
C            0.01542062147406       -1.56745353760323        0.11168257365233
C           -1.10992718405328       -0.73877048943909        0.13151636251708
N           -1.03024649994644        0.58224910393354        0.07000233238303
C            0.18470632694458        1.09608416653953        0.01940726165065
C           -2.49557150395281       -1.31860661102549        0.26020226203592
O           -3.20963213154405       -1.16213672049537        1.20953294190659
O           -2.85031516966099       -1.96988508853372       -0.84807759051901
C           -0.16274387801407       -3.05496544877635        0.27536019198825
O           -1.27390250685069       -3.37550967099833        1.07753861401307
C           -1.07351851917661       -3.13729931024469        2.45207513728637
C            2.54474373718347       -1.60373694853611       -0.06464632810949
C            3.62642952292039       -1.08465430388896        0.64489820022746
C            4.85557130291480       -1.71108893117068        0.60567462165236
C            5.02985204710001       -2.85739491842538       -0.15777221075141
C            3.96129204741430       -3.36327141337317       -0.89535374091721
C            2.72525819118580       -2.74010659168499       -0.84681093802489
Cl           4.16573780508921       -4.76553537761191       -1.87440918769613
Cl           6.56167852233287       -3.63773035604383       -0.20013442584640
H            0.25725145403299        2.17501086363582       -0.00045009915010
H           -3.74167899642412       -2.34127677739212       -0.74711491270705
H           -0.37555618355122       -3.50932615346817       -0.69838857615711
H            0.75356309443369       -3.50212546326015        0.68802227409067
H           -0.24388639379096       -3.74352080228186        2.83414003754932
H           -0.87093102924805       -2.08095584156382        2.65640719019870
H           -1.99824985650436       -3.42212277275218        2.94738587221073
H            3.48710793061313       -0.18765196157940        1.22656512615021
H            5.69107751360664       -1.31726473961540        1.16224500470800
H            1.92082875404508       -3.12721937333745       -1.45102160912025
