23
 energy: -41.597831971410 gnorm: 0.000568216406 xtb: 6.7.1 (edcfbbe)
N            1.16974757795701        0.42350791730142        0.41054500573052
C            1.09799533560288       -0.86818671531041        0.08490156025953
C           -0.14691270727588       -1.47052433909151       -0.13501005942988
C           -1.26648998860169       -0.65770229753282       -0.01505627790154
N           -1.17302770396668        0.63444289147822        0.28986785575059
C            0.04252271549910        1.10051142484884        0.49101061000461
C           -2.64975068711580       -1.18773420510052       -0.22248330590370
O           -3.64779189201954       -0.52537442235174       -0.26467845799625
O           -2.66193907473316       -2.52396792630386       -0.36449641966069
C            2.36375233188307       -1.60094763093865       -0.00474853908104
C            3.46887649612899       -1.13121698705892        0.70523593459187
C            4.67347783588100       -1.80397376793898        0.64747194336590
C            4.79519411377871       -2.94576284610803       -0.12883539262518
C            3.70691028893172       -3.40998310444344       -0.84964448241407
C            2.49569659150783       -2.74674350161938       -0.78771338632670
H           -0.24820204228809       -2.51726862260432       -0.36538868854189
H            0.12372832960905        2.14850839491154        0.75137697781837
H           -3.57380206915492       -2.83100693706225       -0.49176799277970
H            3.35756591326130       -0.23855106871570        1.30070826113411
H            5.52186887115147       -1.43736327310368        1.20627729780396
H            5.73779259871869       -3.47047600125862       -0.17697422946631
H            3.80364513046287       -4.29275617196365       -1.46469098255531
H            1.66074203478257       -3.10750081003302       -1.37002723177722
