23
 energy: -49.870446086027 gnorm: 0.000553703694 xtb: 6.7.1 (edcfbbe)
N            1.16088001965752        0.39834701178242        0.27805259807813
C            1.08700346206180       -0.91334481875693        0.04892730068942
C           -0.15227078783110       -1.53664797852774       -0.11849131092867
C           -1.27380380105947       -0.71634300660852       -0.04954283273269
N           -1.18187561811961        0.59256546875271        0.15909989091441
C            0.03301059795157        1.07801702082958        0.31534338562557
C           -2.65744258842336       -1.26706553768700       -0.21147575817689
O           -3.64786546725582       -0.61085228363294       -0.36832459295523
O           -2.67058045139254       -2.60682659913956       -0.16216931091158
C            2.37002832665573       -1.63177025304891        0.03138052194915
C            3.43663667830935       -1.11833474079045        0.77072046878890
C            4.65713674096155       -1.76207519563110        0.79805645350335
C            4.85019269353348       -2.92995827960772        0.07895284397598
C            3.81188336082498       -3.44782477701683       -0.67937263461565
C            2.58132268643837       -2.80005583116798       -0.69848321226600
F            1.60268234330903       -3.31006816489152       -1.46558824362252
Cl           4.03358377216392       -4.88954174318541       -1.60116919921739
H           -0.25727602120924       -2.59480021146154       -0.28033972696323
H            0.11373716791004        2.14234643602179        0.49312135248051
H           -3.57705561860702       -2.93473498173135       -0.27580360106026
H            3.27475792850920       -0.20500012646657        1.31986260129497
H            5.46805342436735       -1.35567224332536        1.38165387643179
H            5.79911115124467       -3.44134916470906        0.09488912971795
