27
 energy: -56.922811401370 gnorm: 0.000378378405 xtb: 6.7.1 (edcfbbe)
N            1.27855787564238        0.29994417600729        0.56546747788858
C            1.24550019840105       -0.95858101331241        0.12847320091709
C            0.01081650994565       -1.55975448721414       -0.18385189700815
C           -1.11391561228306       -0.73026223324701       -0.10741452770454
N           -1.04444414471065        0.53080837913645        0.29047242644697
C            0.15037385529954        0.97095892286741        0.63913691812770
C           -2.45995374693162       -1.26914941582465       -0.50980453344040
O           -3.08419731254391       -0.91427498237760       -1.46624145510544
O           -2.86900320180951       -2.21630902687159        0.33744486657898
O           -0.14658405911818       -2.85307811067660       -0.60136372063594
C            0.14328832982797       -3.84898134242009        0.36574444702329
C            2.54645384504699       -1.62719597000270       -0.00476735038448
C            3.58984480584769       -1.26294852777461        0.84601721113281
C            4.82622611106991       -1.86461196020589        0.73198505310246
C            5.04540043620097       -2.82993715558152       -0.24188785828471
C            4.01352661401119       -3.18168321382934       -1.11046156024794
C            2.77097064376027       -2.58329420072607       -0.99299342931765
Cl           4.27432821473534       -4.36256445062293       -2.33764889126460
Cl           6.58703369893860       -3.57982924829972       -0.37547625831553
H            0.20754558574148        1.98612914300225        1.00718631403356
H           -3.73213342923865       -2.56687582437611        0.06156200011998
H            1.15310788946258       -3.74492192657992        0.77148287425686
H           -0.58540328504213       -3.80684188026465        1.18112488343078
H            0.05427197081813       -4.79956370832212       -0.15533366531768
H            3.41250083574627       -0.50532820453252        1.59206258108537
H            5.63318623252672       -1.59149719446992        1.39313756787285
H            1.98778113865535       -2.85475654348278       -1.68320267498984
