34
 energy: -61.338749185772 gnorm: 0.000911666437 xtb: 6.7.1 (edcfbbe)
N            0.52789575601536        0.30928375454063        1.03888573686422
C            0.64902269496985       -0.87491751031437        0.43163888559073
C           -0.46057875189717       -1.45200200666851       -0.20034867844099
C           -1.64472294989414       -0.72724661091014       -0.17728642663754
N           -1.74050434090194        0.45708539258658        0.42264291371536
C           -0.64616811031969        0.90358683702695        1.00572854315971
C           -2.88661857218440       -1.23185123440265       -0.84106824633907
O           -3.87665554416605       -0.58630092686311       -1.04130108859467
O           -2.77415665824798       -2.51892368486047       -1.21173410359964
C            1.96759437886565       -1.50368390944816        0.47387503083356
C            2.32538529975655       -2.58405932256552       -0.33514632983618
C            3.59304347053040       -3.10705624664937       -0.26361126526999
C            4.56985980050099       -2.60732265783996        0.61256582259221
C            4.19234846296400       -1.54164549094065        1.43980749707258
C            2.92284148681546       -1.00132597221818        1.35415075113525
Cl           5.23585441527268       -0.83846800059816        2.63737275019688
O            5.74521369947288       -3.25834083907846        0.53756698273538
C            6.95769939496332       -2.75821666227423        1.06675215584886
C            8.16005971671102       -3.52095260376444        0.48716662338126
C            8.81493867395367       -2.18193089115334        0.11391806124283
C            7.50116789726556       -1.45741798589268        0.44556411572572
H           -0.42052269603821       -2.41523680030645       -0.67835566025211
H           -0.71892899501632        1.86109209195879        1.50592715878229
H           -3.59682512444560       -2.80889747587538       -1.63736703565018
H            1.62619547989363       -3.00333558002637       -1.04093047927525
H            3.88563852881369       -3.93311887543198       -0.89281750913172
H            2.65061301822575       -0.17281108600710        1.98874662264838
H            6.93324933932160       -2.75480279249407        2.15941585335151
H            7.86624384596585       -4.11134243368712       -0.37712262365260
H            8.70314971392630       -4.15062426684144        1.18710354735419
H            9.62760372966848       -1.90765256887558        0.78274371656756
H            9.15694061359230       -2.09376761746357       -0.91448515977973
H            6.93418798892606       -1.16863835616713       -0.43797864445173
H            7.57602433671786       -0.60586766649541        1.11698048211151
