37
 energy: -64.521370208649 gnorm: 0.000775906255 xtb: 6.7.1 (edcfbbe)
N            0.69705684680674        0.32042964156412        0.80154462581151
C            0.72355248133018       -0.89856097227398        0.25558118830721
C           -0.43810606071156       -1.43026030787046       -0.32017793610157
C           -1.57295439847913       -0.63100160086509       -0.30108645541378
N           -1.57457674715308        0.58612729448433        0.23744099856833
C           -0.43593953084701        0.98972222845016        0.76388613456376
C           -2.86614827183856       -1.09390955301868       -0.89355143004634
O           -3.83354572339507       -0.40936099761007       -1.07171295838985
O           -2.83207787878689       -2.39761549302881       -1.22028049745309
C            1.99325451614691       -1.61905087001139        0.30858601338524
C            2.24290597550760       -2.79118489140189       -0.40830976396129
C            3.46001943687254       -3.41329898136625       -0.29798612451208
C            4.50604681078647       -2.93329683183113        0.51388489067758
C            4.24869816416444       -1.74387985734119        1.20927221398661
C            3.01947982371354       -1.11630449918163        1.10158443370026
Cl           5.38753755049241       -0.92458296374931        2.23253791563962
O            5.59621312885646       -3.71886875372295        0.42159753816770
C            6.72477336944423       -3.82114816507265        1.27704301853895
C            7.81895254722997       -2.76049465698974        1.09856050452938
C            8.63565684508566       -2.91367877802496        2.37775829555614
C            7.58065535791674       -3.12277262032444        3.46787816106475
C            6.44055650409720       -3.89743966654089        2.78953801813298
H           -0.47373662618816       -2.41484212204898       -0.75213068654937
H           -0.43120300408639        1.97481841741437        1.21259150209854
H           -3.68565022563791       -2.66329365220679       -1.59801253572452
H            1.49585078580896       -3.21539764830210       -1.05964538554862
H            3.66485689888659       -4.31889749587399       -0.84750145390130
H            2.84191349155807       -0.20086538711782        1.64420317008088
H            7.14149894599375       -4.78246100867373        0.94909052196589
H            8.40491928169248       -2.93948557637851        0.19810592304760
H            7.38747763709370       -1.76435895596775        1.03443907154089
H            9.26500510004027       -2.04770228905532        2.57441537556239
H            9.27546988045485       -3.79457215986764        2.30175641721293
H            7.22224198995537       -2.15668611369730        3.82059826325731
H            7.98360443597213       -3.66282155086778        4.32291430036407
H            5.46800371961110       -3.46757596854178        3.02347211788361
H            6.42161694160654       -4.93843719308839        3.11111461396271
