23
 energy: -50.052509226365 gnorm: 0.000829095931 xtb: 6.7.1 (edcfbbe)
N            1.18892329084194        0.33791234730342        0.45334658288753
C            1.07498557260338       -0.94483898515668        0.10294043614877
C           -0.18253102395193       -1.50244623428253       -0.14461396866003
C           -1.27362013475051       -0.64620304040672       -0.03559080493458
N           -1.14052388418581        0.63423512234462        0.29341044251450
C            0.08623239332906        1.05381663424639        0.52928989296500
C           -2.66958716707049       -1.12272292548169       -0.29713057774300
O           -3.61413992797814       -0.41351674082287       -0.50061527806070
O           -2.75030312941831       -2.46087112887976       -0.28510336451013
C            2.33329254337984       -1.70000009158704        0.03428417078076
C            3.42418062262525       -1.25245852548213        0.78383161438093
C            4.63411037733438       -1.91434487780720        0.76953741206039
C            4.76515954066291       -3.04482352924262       -0.02045993965830
C            3.72110186044620       -3.51625010891745       -0.79514746822438
C            2.51843812295699       -2.83588874938828       -0.75448666101858
F            1.52642864271703       -3.29600127659542       -1.53792939525089
F            5.93517942775327       -3.70097398828511       -0.04399763116693
H           -0.32420088976660       -2.53805023529273       -0.39978704334581
H            0.20029116500282        2.09210731871918        0.81296289635740
H           -3.66279467157549       -2.74008747787787       -0.46290037263910
H            3.29124615732712       -0.36411805996858        1.38051098970885
H            5.47080632962022       -1.56901217706436        1.35487030503834
H            3.83727478209742       -4.38729327007483       -1.41930223763048
