43
 energy: -75.179065698671 gnorm: 0.000601810723 xtb: 6.7.1 (edcfbbe)
O            1.66470488922179       -0.35406344356794       -0.50643167014783
C            0.77955942158959        0.25179323393197        0.41223129767693
C            0.48119112623905        1.72635280976312        0.08384262354768
N            1.60107693631211        2.58153469505752        0.43942488908823
C            1.29217786344081        3.67631017154779        1.34441711423161
C            0.61630065028120        4.85051571886242        0.62548865253627
O            1.41443944531974        5.31416930194508       -0.44185295250193
C            1.67412068880403        4.28015116687541       -1.36764607597915
C            2.36540256518500        3.08972016165047       -0.69094902415195
C            3.00056230152952       -0.31047061450720       -0.32593923019709
C            3.67459127195459        0.36415947836714        0.68873029781472
C            5.05154767827306        0.31357609982887        0.77971134452572
C            5.80919871170832       -0.40915754479133       -0.13952030691511
C            7.26749515599944       -0.49208723809926       -0.08122326376680
N            7.87976585355624       -1.05992154879783       -1.12408739404774
C            9.19283503952635       -1.14741240072168       -1.09947979587925
N            9.99482160961456       -0.72394253694129       -0.14358875903181
C            9.40558077913251       -0.16135600534427        0.90905956933432
C            8.02740203874195       -0.02176294000273        0.99869037814512
C           10.31572759714268        0.31407732769671        1.99643724822984
O           11.51074926181803        0.22127005474917        1.99153501644351
O            9.63966250641757        0.87562259703944        3.01387063858702
C            5.14122613623042       -1.07550144333466       -1.17170021747690
C            3.77030805243649       -1.02746217213898       -1.25893626817368
Cl           2.95394802984754       -1.85547216339752       -2.53377038054201
H           -0.14700180266900       -0.32224100842200        0.31416789125502
H            1.14873378608477        0.15848431908964        1.43771851879648
H            0.24027135064675        1.78822847374411       -0.98305282983710
H           -0.41130190371914        2.00917612556268        0.64843857744377
H            2.24032431721987        4.02395217088457        1.76660366184595
H            0.66032484455398        3.31123750246290        2.15584171747942
H           -0.37084252091969        4.53994904684283        0.24607524709522
H            0.48813523271799        5.69880580463199        1.29926829957261
H            2.31493100201949        4.71439435393663       -2.13599983610698
H            0.72919052889283        3.95474679231169       -1.83181237815259
H            3.33755883106901        3.41429751720644       -0.30758909881840
H            2.52824564191895        2.28697213077046       -1.41048104577148
H            3.12021649010460        0.96240150223760        1.39263758884905
H            5.53058931432941        0.86356705113602        1.57411341487801
H            9.66302541403399       -1.61343520359013       -1.95609894954081
H            7.58405196491013        0.42308352337678        1.87195037676836
H           10.26398680359682        1.17008304447162        3.69610500506023
H            5.71860509491252       -1.62862591234274       -1.89439989216940
