24
 energy: -53.782363453702 gnorm: 0.000454835743 xtb: 6.7.1 (edcfbbe)
N           -0.30976963346382        1.15682812188870        0.54756054762523
C            0.95227079698717        1.12902511688427        0.14244373224704
C            1.57129478380634       -0.12069250295758       -0.14521751971713
C            0.75528796842095       -1.25628657272714        0.02301090251307
N           -0.51376344639192       -1.17628172761945        0.41997059529946
C           -0.98034922394776        0.02496334682455        0.66419946469367
C            1.30710509278568       -2.60591771228885       -0.23787601479280
O            2.46187581375049       -2.79480067909216       -0.58214088261225
O            0.44482530352849       -3.58800252264741       -0.06783346293659
O            2.84269799183261       -0.20447850620262       -0.53016284178165
C            1.62710381893802        2.42714838612096        0.04380855631685
C            2.79821094460746        2.63169093388455       -0.68529579520456
C            3.37444214035642        3.88603696202268       -0.74183999120832
C            2.80041702128519        4.95680696160748       -0.07301339715452
C            1.62516331137182        4.76291185055671        0.65276373077660
C            1.04504509693883        3.51131580040945        0.70509535517329
Cl           0.89357334484339        6.08093406755664        1.48671797474768
Cl           3.53498553903733        6.50913065849854       -0.14347135285257
H           -2.00774373908660        0.09838309587767        0.99193295060697
H            0.86000504176738       -4.44743353076335       -0.24929898748797
H            3.07925951816927       -1.15580412697571       -0.64596624966664
H            3.26022580803327        1.81792489476592       -1.21665021331449
H            4.27888076960158        4.04414528147364       -1.30771379715061
H            0.13328593682878        3.35577240290215        1.25854669587899
