25
 energy: -53.145234951701 gnorm: 0.000736982746 xtb: 6.7.1 (edcfbbe)
N           -0.40278435568472        1.17468280822768        0.30059992999219
C            0.89966198963556        1.14366903429619        0.09362716586243
C            1.59979373740030       -0.09199495183635       -0.03366025121030
C            0.77467125509313       -1.24290947500947       -0.00248682078447
N           -0.54243210166945       -1.16371992095378        0.16947969320339
C           -1.06500126755060        0.02694982970229        0.33191071566454
C            1.34971926107020       -2.59884645541342       -0.12756066665158
O            2.53862683754244       -2.83358308516846       -0.23317060959660
O            0.44028037231473       -3.56330123677393       -0.09725710149721
N            2.93538267414060       -0.16921361060487       -0.18112267402300
C            1.58085222753173        2.44642780872548        0.02202333175830
C            2.55902451210868        2.72046555874058       -0.93278684924887
C            3.15966024568451        3.96448293627069       -0.97981585010726
C            2.79955023385162        4.95063741277245       -0.07356543971178
C            1.80640022758968        4.69049950787411        0.86971038803377
C            1.19774884382077        3.44937732965439        0.90909937655927
Cl           1.33299582418537        5.91112373355813        1.98923336280395
Cl           3.56922952261451        6.48892524526369       -0.12836397505973
H           -2.13134067975753        0.08384428091254        0.49836613654209
H            0.86877938690767       -4.43102396472221       -0.17273433591276
H            3.50406860613925        0.63704505661176        0.01001881614282
H            3.34415691632898       -1.09507288071211       -0.16641371320214
H            2.82235255726667        1.97861576225954       -1.67119458665569
H            3.91051107536541        4.18084754477110       -1.72327043598691
H            0.41902209807049        3.24894173155407        1.62720439308575
