35
 energy: -60.740719071593 gnorm: 0.000360147356 xtb: 6.7.1 (edcfbbe)
N           -1.11057416443480        0.29127177653278        0.34723410091484
C           -2.23403804278771        0.90781575990009        0.79082711981065
C           -2.89433881795704        1.84299194617576       -0.03705990886697
C           -4.02610367429125        2.50960455100800        0.35368388156106
C           -4.59370427689571        2.29727015911152        1.61357725374549
C           -5.78478810556262        3.03459149021323        2.00256435108200
N           -6.36034116327232        3.79111442854704        1.05955798022941
C           -7.44114996086187        4.46733354387815        1.38420035734389
N           -8.04377854115755        4.48645675866141        2.55594575188005
C           -7.48208498794118        3.74712114150654        3.51272825152796
C           -6.33778952831221        2.99622749025943        3.29247154714433
C           -8.16222969243525        3.76458139053475        4.84277296700783
O           -9.23262969217372        4.25446377992109        5.07182208871067
O           -7.43463212308888        3.14994048571416        5.79236928701947
C           -3.98019496160468        1.35358617155550        2.43796503690360
C           -2.85046634335313        0.67446529404769        2.03914021361242
Cl          -2.28502195432368       -0.53661199830612        3.16052113574017
C           -0.11818856278951       -0.38655295932182        1.16495810411891
C            1.13514135715036       -0.41635248870636        0.29291027331505
C            0.54995100337365       -0.50677893396190       -1.11107775184355
C           -0.64094127406949        0.44112508397436       -1.01893243055336
H           -2.48852021530115        2.05509738065254       -1.01143187448845
H           -4.49504572135711        3.22226905367937       -0.30545996374753
H           -7.88471628644487        5.07239698731067        0.60313039725184
H           -5.90552849926916        2.42084384214012        4.09211622525698
H           -7.90964423069308        3.18212425727646        6.63789970702605
H           -4.39643920532517        1.11268011638289        3.40309246949535
H           -0.44155721497945       -1.40800510186892        1.39422469528419
H            0.04870081279788        0.14820727986842        2.10134087359098
H            1.69773932554648        0.51132858210567        0.40532834510493
H            1.78581139674304       -1.25192855161804        0.53992213399721
H            1.25187280873159       -0.21241732471807       -1.88789847244801
H            0.20918603399364       -1.52307122439117       -1.31072574111358
H           -0.31679047388601        1.47325466168901       -1.20878629091389
H           -1.43212502377235        0.18444517025142       -1.72784211469703
