40
 energy: -67.703127229096 gnorm: 0.000947273459 xtb: 6.7.1 (edcfbbe)
N            0.28716006146921        0.59930823676493       -0.18117693655564
C            0.58390217709706       -0.69483777878068       -0.03611236417025
C           -0.42460480018342       -1.66040331894501       -0.15887842562680
C           -1.70986911983045       -1.19851929783644       -0.40782572730529
N           -1.98719079347871        0.09760156994918       -0.53103307323744
C           -0.96656068656328        0.92331649456340       -0.41832391537015
C           -2.86798848722994       -2.13553488527243       -0.54256585415469
O           -4.02373408382687       -1.81751928707904       -0.52476774915268
O           -2.47075465705709       -3.41138037888752       -0.68491576847130
C            1.98240087263266       -1.02075242510708        0.23673847721380
C            2.38839222070817       -2.25593470798418        0.73431673363074
C            3.71997888935614       -2.51620502300144        0.99640407130856
C            4.70073400387922       -1.55488807151851        0.75782271977340
C            4.28051105054461       -0.31016008087183        0.25240659080661
C            2.95575932630636       -0.04390649124041        0.00455098056549
Cl           5.47767989182352        0.89327991063589       -0.05102790046654
O            6.02298935426625       -1.69530745075167        0.94905934515461
C            6.56545518235866       -2.87247994017303        1.53594894029616
C            8.05473458985593       -2.87701738763381        1.19169033376499
C            8.74554038219602       -4.08268714381911        1.81951954120805
C            8.55374323159271       -4.08215629614514        3.33300714126782
C            7.06822340784128       -4.07506982282623        3.68066659068540
C            6.37694262852733       -2.86740325264299        3.05486895966609
H           -0.22896083437547       -2.71564125664549       -0.08135045699728
H           -1.18065000500450        1.97868045381193       -0.53101157867109
H           -3.24717556111274       -3.98641184857234       -0.77632561623368
H            1.66320027635565       -3.02560969206806        0.94778562579751
H            3.99119233655179       -3.48241178541136        1.39112907484082
H            2.65063046940227        0.91862502324994       -0.37207528637858
H            6.09358528920396       -3.76313284395543        1.09744906090743
H            8.17153463901625       -2.88823410456622        0.10707697359012
H            8.49629223768348       -1.95248137244855        1.56636593228226
H            9.80916857617673       -4.05978289536513        1.57754639218579
H            8.32704199302461       -5.00089989770266        1.40053406535138
H            9.02845693020227       -3.19543337632214        3.75778305647214
H            9.03251381272531       -4.96068156851380        3.76891139265054
H            6.93791497748095       -4.04791102754956        4.76387372236401
H            6.60404522484164       -4.99278708458417        3.31084644861274
H            6.81038684647562       -1.94587325631322        3.44892773384350
H            5.31328814906379       -2.86714663843398        3.30243074855017
