22
 energy: -41.866851273432 gnorm: 0.000734905078 xtb: 6.7.1 (edcfbbe)
N            1.18261694352287        0.42199893451754        0.35430552388780
C            1.09925368739875       -0.87897711856054        0.07534690864858
C           -0.14802161228132       -1.48476746047371       -0.11476555756025
C           -1.26250141225409       -0.65971579761107       -0.02486947840024
N           -1.15921164113565        0.63982615389180        0.23839640585118
C            0.05900376310355        1.10677402242820        0.42233122529572
C           -2.64918577268741       -1.18574364871176       -0.22553753188578
O           -3.64195818970644       -0.51744237351550       -0.28210144382101
O           -2.66775688080182       -2.52386212226827       -0.34467452777529
C            2.35835315832438       -1.62251442925427        0.00381504001544
C            2.49944221518595       -2.80042280735325       -0.72878672323771
C            3.72635777878958       -3.44011621924787       -0.73636955694954
C            4.77114807604840       -2.87640708939492       -0.01696297018023
N            4.65008036571671       -1.75835095947444        0.67946330249257
C            3.48253757916192       -1.15039042888040        0.68977840720029
H           -0.25558655139810       -2.53865749086966       -0.30701647677344
H            0.14667814994151        2.16125075513966        0.65039523145884
H           -3.58072054939903       -2.82856919711900       -0.46989552697027
H            1.67537243046460       -3.19621619402938       -1.30412357448082
H            3.87247577890280       -4.35025643502546       -1.29713292002659
H            5.75096658048115       -3.33463952813609        0.00101437299724
H            3.41475610262179       -0.24111056605160        1.27055987021327
