21
 energy: -43.925027188473 gnorm: 0.000782706901 xtb: 6.7.1 (edcfbbe)
N           -0.78458764387455       -1.09822127920529        0.15542011892499
C           -1.42558014728790        0.04890261738741       -0.07721477001066
C           -0.70970870525417        1.24346578880054       -0.20532444589416
C            0.67618318869766        1.15355853497980       -0.08831467893855
N            1.30131250686623       -0.00446785754320        0.12254192815184
C            0.52956301375542       -1.06643956488320        0.23487498929201
C            1.46923117823519        2.33363205009909       -0.18295033253222
N            2.06445246206776        3.30798523702511       -0.25879983820364
C           -2.88773220688017       -0.01611052349536       -0.16275713549475
C           -3.63723617929496        0.94418882365781       -0.84054131716324
C           -5.01340855109035        0.84242715928176       -0.89475602069901
C           -5.66444472782079       -0.21116405749036       -0.26720435049919
C           -4.92030747322741       -1.17989360012440        0.40690596419984
C           -3.54207136766091       -1.08371973042266        0.45024021315473
Cl          -5.71244224799695       -2.49501415382423        1.18498933671616
Cl          -7.37773607675480       -0.31990750329022       -0.33168581524134
H           -1.19082925013599        2.19494989940299       -0.36035015518456
H            1.02949100933970       -2.00957798563327        0.41420631648568
H           -3.15202549683522        1.76097647556915       -1.35220319783426
H           -5.59581485860662        1.57940667620710       -1.42487891438824
H           -2.95851842624023       -1.83282700649250        0.96111210515548
