      -----------------------------------------------------------      
     |                   =====================                   |     
     |                           x T B                           |     
     |                   =====================                   |     
     |                         S. Grimme                         |     
     |          Mulliken Center for Theoretical Chemistry        |     
     |                    University of Bonn                     |     
      -----------------------------------------------------------      

   * xtb version 6.7.1 (edcfbbe) compiled by 'conda@3ef47c1a292c' on 2024-11-25

   xtb is free software: you can redistribute it and/or modify it under
   the terms of the GNU Lesser General Public License as published by
   the Free Software Foundation, either version 3 of the License, or
   (at your option) any later version.
   
   xtb is distributed in the hope that it will be useful,
   but WITHOUT ANY WARRANTY; without even the implied warranty of
   MERCHANTABILITY or FITNESS FOR A PARTICULAR PURPOSE.  See the
   GNU Lesser General Public License for more details.
   
   Cite this work as:
   * C. Bannwarth, E. Caldeweyher, S. Ehlert, A. Hansen, P. Pracht,
     J. Seibert, S. Spicher, S. Grimme, WIREs Comput. Mol. Sci., 2020, 11,
     e01493. DOI: 10.1002/wcms.1493
   
   for GFN2-xTB:
   * C. Bannwarth, S. Ehlert and S. Grimme., J. Chem. Theory Comput., 2019,
     15, 1652-1671. DOI: 10.1021/acs.jctc.8b01176
   for GFN1-xTB:
   * S. Grimme, C. Bannwarth, P. Shushkov, J. Chem. Theory Comput., 2017,
     13, 1989-2009. DOI: 10.1021/acs.jctc.7b00118
   for GFN0-xTB:
   * P. Pracht, E. Caldeweyher, S. Ehlert, S. Grimme, ChemRxiv, 2019, preprint.
     DOI: 10.26434/chemrxiv.8326202.v1
   for GFN-FF:
   * S. Spicher and S. Grimme, Angew. Chem. Int. Ed., 2020, 59, 15665-15673.
     DOI: 10.1002/anie.202004239
   
   for ALPB and GBSA implicit solvation:
   * S. Ehlert, M. Stahn, S. Spicher, S. Grimme, J. Chem. Theory Comput.,
     2021, 17, 4250-4261. DOI: 10.1021/acs.jctc.1c00471
   
   for ddCOSMO and CPCM-X implicit solvation:
   * M. Stahn, S. Ehlert, S. Grimme, J. Phys. Chem. A,
     2023, XX, XXXX-XXXX. DOI: 10.1021/acs.jpca.3c04382
   
   for DFT-D4:
   * E. Caldeweyher, C. Bannwarth and S. Grimme, J. Chem. Phys., 2017,
     147, 034112. DOI: 10.1063/1.4993215
   * E. Caldeweyher, S. Ehlert, A. Hansen, H. Neugebauer, S. Spicher,
     C. Bannwarth and S. Grimme, J. Chem. Phys., 2019, 150, 154122.
     DOI: 10.1063/1.5090222
   * E. Caldeweyher, J.-M. Mewes, S. Ehlert and S. Grimme, Phys. Chem. Chem. Phys.
     2020, 22, 8499-8512. DOI: 10.1039/D0CP00502A
   
   for sTDA-xTB:
   * S. Grimme and C. Bannwarth, J. Chem. Phys., 2016, 145, 054103.
     DOI: 10.1063/1.4959605
   
   in the mass-spec context:
   * V. Asgeirsson, C. Bauer and S. Grimme, Chem. Sci., 2017, 8, 4879.
     DOI: 10.1039/c7sc00601b
   * J. Koopman and S. Grimme, ACS Omega 2019, 4, 12, 15120-15133.
     DOI: 10.1021/acsomega.9b02011
   
   for metadynamics refer to:
   * S. Grimme, J. Chem. Theory Comput., 2019, 155, 2847-2862
     DOI: 10.1021/acs.jctc.9b00143
   
   for SPH calculations refer to:
   * S. Spicher and S. Grimme, J. Chem. Theory Comput., 2021, 17, 1701-1714
     DOI: 10.1021/acs.jctc.0c01306
   
   for ONIOM refer to:
   * C. Plett, A. Katbashev, S. Ehlert, S. Grimme, M. Bursch,
     Phys. Chem. Chem. Phys., 2023, 25, 17860-17868. DOI: 10.1039/D3CP02178E
   
   for DIPRO refer to:
   * J. Kohn, N. Gildemeister, S. Grimme, D. Fazzi, A. Hansen,
     J. Chem. Phys., 2023, just accepted.
   
   for PTB refer to:
   * S. Grimme, M. Mueller, A. Hansen, J. Chem. Phys., 2023, 158, 124111.
     DOI: 10.1063/5.0137838
   
   with help from (in alphabetical order)
   P. Atkinson, C. Bannwarth, F. Bohle, G. Brandenburg, E. Caldeweyher
   M. Checinski, S. Dohm, S. Ehlert, S. Ehrlich, I. Gerasimov, C. Hölzer
   A. Katbashev, J. Kohn, J. Koopman, C. Lavigne, S. Lehtola, F. März, M. Müller,
   F. Musil, H. Neugebauer, J. Pisarek, C. Plett, P. Pracht, F. Pultar,
   J. Seibert, P. Shushkov, S. Spicher, M. Stahn, M. Steiner, T. Strunk,
   J. Stückrath, T. Rose, and J. Unsleber
   
 * started run on 2024/12/17 at 14:08:03.503     
   ID    Z sym.   atoms
    1    7 N      1, 5
    2    6 C      2-4, 6, 7, 10-15
    3    8 O      8, 9
    4    9 F      16
    5   17 Cl     17
    6    1 H      18-23

           -------------------------------------------------
          |                Calculation Setup                |
           -------------------------------------------------

          program call               : xtb K001.xyz --opt --namespace K001
          calculation namespace      : K001
          coordinate file            : K001.xyz
          omp threads                :                     8


           -------------------------------------------------
          |                 G F N 2 - x T B                 |
           -------------------------------------------------

        Reference                      10.1021/acs.jctc.8b01176
      * Hamiltonian:
        H0-scaling (s, p, d)           1.850000    2.230000    2.230000
        zeta-weighting                 0.500000
      * Dispersion:
        s8                             2.700000
        a1                             0.520000
        a2                             5.000000
        s9                             5.000000
      * Repulsion:
        kExp                           1.500000    1.000000
        rExp                           1.000000
      * Coulomb:
        alpha                          2.000000
        third order                    shell-resolved
        anisotropic                    true
        a3                             3.000000
        a5                             4.000000
        cn-shift                       1.200000
        cn-exp                         4.000000
        max-rad                        5.000000


          ...................................................
          :                      SETUP                      :
          :.................................................:
          :  # basis functions                  80          :
          :  # atomic orbitals                  79          :
          :  # shells                           41          :
          :  # electrons                        86          :
          :  max. iterations                   250          :
          :  Hamiltonian                  GFN2-xTB          :
          :  restarted?                      false          :
          :  GBSA solvation                  false          :
          :  PC potential                    false          :
          :  electronic temp.          300.0000000     K    :
          :  accuracy                    1.0000000          :
          :  -> integral cutoff          0.2500000E+02      :
          :  -> integral neglect         0.1000000E-07      :
          :  -> SCF convergence          0.1000000E-05 Eh   :
          :  -> wf. convergence          0.1000000E-03 e    :
          :  Broyden damping             0.4000000          :
          :  net charge                          0          :
          :  unpaired electrons                  0          :
          ...................................................

 iter      E             dE          RMSdq      gap      omega  full diag
   1    -50.3578579 -0.503579E+02  0.517E+00    2.26       0.0  T
   2    -50.4117600 -0.539021E-01  0.310E+00    2.21       1.0  T
   3    -50.4102224  0.153762E-02  0.149E+00    1.98       1.0  T
   4    -50.4227024 -0.124800E-01  0.304E-01    1.89       1.0  T
   5    -50.4243457 -0.164334E-02  0.124E-01    1.87       1.0  T
   6    -50.4245229 -0.177154E-03  0.586E-02    1.86       1.0  T
   7    -50.4245346 -0.117174E-04  0.399E-02    1.87       1.0  T
   8    -50.4245446 -0.994252E-05  0.299E-02    1.87       1.0  T
   9    -50.4245519 -0.733514E-05  0.200E-02    1.87       1.0  T
  10    -50.4245553 -0.339521E-05  0.112E-02    1.87       1.9  T
  11    -50.4245569 -0.157227E-05  0.444E-03    1.87       4.7  T
  12    -50.4245570 -0.177475E-06  0.173E-03    1.87      12.1  T
  13    -50.4245571 -0.182177E-07  0.934E-04    1.87      22.3  T
  14    -50.4245571 -0.694571E-08  0.482E-04    1.87      43.3  T

   *** convergence criteria satisfied after 14 iterations ***

         #    Occupation            Energy/Eh            Energy/eV
      -------------------------------------------------------------
         1        2.0000           -1.0711287             -29.1469
       ...           ...                  ...                  ...
        37        2.0000           -0.4615816             -12.5603
        38        2.0000           -0.4414870             -12.0135
        39        2.0000           -0.4357222             -11.8566
        40        2.0000           -0.4353176             -11.8456
        41        2.0000           -0.4233753             -11.5206
        42        2.0000           -0.4180435             -11.3755
        43        2.0000           -0.3896760             -10.6036 (HOMO)
        44                         -0.3209842              -8.7344 (LUMO)
        45                         -0.2917585              -7.9392
        46                         -0.2658829              -7.2350
        47                         -0.2569546              -6.9921
        48                         -0.2256444              -6.1401
       ...                                ...                  ...
        79                          0.6329124              17.2224
      -------------------------------------------------------------
                  HL-Gap            0.0686918 Eh            1.8692 eV
             Fermi-level           -0.3553301 Eh           -9.6690 eV

 SCC (total)                   0 d,  0 h,  0 min,  0.020 sec
 SCC setup                      ...        0 min,  0.000 sec (  0.744%)
 Dispersion                     ...        0 min,  0.000 sec (  1.046%)
 classical contributions        ...        0 min,  0.000 sec (  0.242%)
 integral evaluation            ...        0 min,  0.003 sec ( 12.713%)
 iterations                     ...        0 min,  0.014 sec ( 69.639%)
 molecular gradient             ...        0 min,  0.003 sec ( 15.136%)
 printout                       ...        0 min,  0.000 sec (  0.400%)

         :::::::::::::::::::::::::::::::::::::::::::::::::::::
         ::                     SUMMARY                     ::
         :::::::::::::::::::::::::::::::::::::::::::::::::::::
         :: total energy             -49.864721841771 Eh    ::
         :: gradient norm              0.071300041599 Eh/a0 ::
         :: HOMO-LUMO gap              1.869199733922 eV    ::
         ::.................................................::
         :: SCC energy               -50.424597904811 Eh    ::
         :: -> isotropic ES            0.075349592452 Eh    ::
         :: -> anisotropic ES          0.002324600748 Eh    ::
         :: -> anisotropic XC          0.019435410975 Eh    ::
         :: -> dispersion             -0.025163661699 Eh    ::
         :: repulsion energy           0.559876063040 Eh    ::
         :: add. restraining           0.000000000000 Eh    ::
         :: total charge              -0.000000000000 e     ::
         :::::::::::::::::::::::::::::::::::::::::::::::::::::

      ----------------------------------------------------------- 
     |                   =====================                   |
     |                        A N C O P T                        |
     |                   =====================                   |
     |               Approximate Normal Coordinate               |
     |                Rational Function Optimizer                |
      ----------------------------------------------------------- 
      ----------------------------------------------------------- 
     |                   =====================                   |
     |                        A N C O P T                        |
     |                   =====================                   |
     |               Approximate Normal Coordinate               |
     |                Rational Function Optimizer                |
      ----------------------------------------------------------- 

          ...................................................
          :                      SETUP                      :
          :.................................................:
          :   optimization level            normal          :
          :   max. optcycles                   200          :
          :   ANC micro-cycles                  20          :
          :   degrees of freedom                63          :
          :.................................................:
          :   RF solver                   davidson          :
          :   write xtbopt.log                true          :
          :   linear?                        false          :
          :   energy convergence         0.5000000E-05 Eh   :
          :   grad. convergence          0.1000000E-02 Eh/α :
          :   maxmium RF displ.          1.0000000          :
          :   Hlow (freq-cutoff)         0.1000000E-01      :
          :   Hmax (freq-cutoff)         5.0000000          :
          :   S6 in model hess.         20.0000000          :
          ...................................................

generating ANC from exact Hessian ...
Using Lindh-Hessian (1995)
 Shifting diagonal of input Hessian by    8.8857989739063968E-003
 Lowest  eigenvalues of input Hessian
    0.000000    0.000000    0.000000    0.000000    0.000000    0.000000
    0.010000    0.010763    0.011298    0.015027    0.016864    0.020384
    0.021313    0.024747    0.030364    0.032045    0.036612    0.038749
 Highest eigenvalues
    1.942552    1.989205    2.037615    2.076446    2.121830    2.330796


........................................................................
.............................. CYCLE    1 ..............................
........................................................................

 iter      E             dE          RMSdq      gap      omega  full diag
   1    -50.4245571 -0.504246E+02  0.268E-04    1.87       0.0  T
   2    -50.4245571 -0.225562E-09  0.212E-04    1.87      98.2  T
   3    -50.4245571 -0.118320E-09  0.167E-04    1.87     124.9  T
     SCC iter.                  ...        0 min,  0.003 sec
     gradient                   ...        0 min,  0.003 sec
 * total energy  :   -49.8647218 Eh     change       -0.1513186E-08 Eh
   gradient norm :     0.0712992 Eh/α   predicted     0.0000000E+00 (-100.00%)
   displ. norm   :     0.1563076 α      lambda       -0.6406248E-02
   maximum displ.:     0.0712005 α      in ANC's #12, #31, #34, ...

........................................................................
.............................. CYCLE    2 ..............................
........................................................................

 iter      E             dE          RMSdq      gap      omega  full diag
   1    -50.4562737 -0.504563E+02  0.150E-01    1.92       0.0  T
   2    -50.4563390 -0.653214E-04  0.102E-01    1.92       1.0  T
   3    -50.4563399 -0.818840E-06  0.504E-02    1.92       1.0  T
   4    -50.4563622 -0.223709E-04  0.138E-02    1.92       1.5  T
   5    -50.4563642 -0.199179E-05  0.446E-03    1.92       4.7  T
   6    -50.4563643 -0.114199E-06  0.309E-03    1.92       6.8  T
   7    -50.4563644 -0.467931E-07  0.176E-03    1.92      11.9  T
   8    -50.4563644 -0.226892E-07  0.125E-03    1.92      16.7  T
   9    -50.4563644 -0.123798E-07  0.553E-04    1.92      37.7  T
  10    -50.4563644 -0.171779E-08  0.326E-04    1.92      63.9  T
     SCC iter.                  ...        0 min,  0.009 sec
     gradient                   ...        0 min,  0.003 sec
 * total energy  :   -49.8689727 Eh     change       -0.4250851E-02 Eh
   gradient norm :     0.0233291 Eh/α   predicted    -0.3281535E-02 ( -22.80%)
   displ. norm   :     0.1236784 α      lambda       -0.1392313E-02
   maximum displ.:     0.0458777 α      in ANC's #25, #12, #1, ...

........................................................................
.............................. CYCLE    3 ..............................
........................................................................

 iter      E             dE          RMSdq      gap      omega  full diag
   1    -50.4680258 -0.504680E+02  0.906E-02    1.94       0.0  T
   2    -50.4680412 -0.153912E-04  0.595E-02    1.94       1.0  T
   3    -50.4680368  0.438473E-05  0.301E-02    1.94       1.0  T
   4    -50.4680487 -0.119049E-04  0.654E-03    1.94       3.2  T
   5    -50.4680491 -0.392276E-06  0.295E-03    1.94       7.1  T
   6    -50.4680491 -0.347495E-07  0.202E-03    1.94      10.3  T
   7    -50.4680492 -0.194554E-07  0.117E-03    1.94      17.9  T
   8    -50.4680492 -0.989864E-08  0.851E-04    1.94      24.5  T
   9    -50.4680492 -0.641273E-08  0.354E-04    1.94      59.0  T
     SCC iter.                  ...        0 min,  0.008 sec
     gradient                   ...        0 min,  0.003 sec
 * total energy  :   -49.8697802 Eh     change       -0.8075502E-03 Eh
   gradient norm :     0.0076780 Eh/α   predicted    -0.7068650E-03 ( -12.47%)
   displ. norm   :     0.0796708 α      lambda       -0.2148264E-03
   maximum displ.:     0.0477403 α      in ANC's #1, #2, #24, ...

........................................................................
.............................. CYCLE    4 ..............................
........................................................................

 iter      E             dE          RMSdq      gap      omega  full diag
   1    -50.4677601 -0.504678E+02  0.431E-02    1.94       0.0  T
   2    -50.4677611 -0.998455E-06  0.252E-02    1.94       1.0  T
   3    -50.4677598  0.137285E-05  0.904E-03    1.94       2.3  T
   4    -50.4677615 -0.176840E-05  0.195E-03    1.94      10.7  T
   5    -50.4677615 -0.300585E-07  0.107E-03    1.94      19.4  T
   6    -50.4677616 -0.646141E-08  0.549E-04    1.94      38.0  T
   7    -50.4677616 -0.864844E-09  0.307E-04    1.94      67.9  T
     SCC iter.                  ...        0 min,  0.015 sec
     gradient                   ...        0 min,  0.003 sec
 * total energy  :   -49.8699363 Eh     change       -0.1560238E-03 Eh
   gradient norm :     0.0057394 Eh/α   predicted    -0.1080969E-03 ( -30.72%)
   displ. norm   :     0.1205255 α      lambda       -0.1594155E-03
   maximum displ.:     0.0787093 α      in ANC's #1, #2, #4, ...

........................................................................
.............................. CYCLE    5 ..............................
........................................................................

 iter      E             dE          RMSdq      gap      omega  full diag
   1    -50.4660284 -0.504660E+02  0.602E-02    1.94       0.0  T
   2    -50.4660301 -0.164925E-05  0.351E-02    1.94       1.0  T
   3    -50.4660284  0.169235E-05  0.103E-02    1.94       2.0  T
   4    -50.4660306 -0.222732E-05  0.214E-03    1.94       9.8  T
   5    -50.4660306 -0.358429E-07  0.117E-03    1.94      17.8  T
   6    -50.4660306 -0.121669E-07  0.506E-04    1.94      41.2  T
   7    -50.4660306 -0.630266E-09  0.228E-04    1.94      91.3  T
     SCC iter.                  ...        0 min,  0.010 sec
     gradient                   ...        0 min,  0.004 sec
 * total energy  :   -49.8700338 Eh     change       -0.9751590E-04 Eh
   gradient norm :     0.0028029 Eh/α   predicted    -0.8086633E-04 ( -17.07%)
   displ. norm   :     0.0876712 α      lambda       -0.5098890E-04
   maximum displ.:     0.0623663 α      in ANC's #1, #2, #3, ...

........................................................................
.............................. CYCLE    6 ..............................
........................................................................

 iter      E             dE          RMSdq      gap      omega  full diag
   1    -50.4654874 -0.504655E+02  0.435E-02    1.94       0.0  T
   2    -50.4654879 -0.518602E-06  0.254E-02    1.94       1.0  T
   3    -50.4654872  0.694142E-06  0.625E-03    1.94       3.3  T
   4    -50.4654881 -0.891983E-06  0.126E-03    1.94      16.6  T
   5    -50.4654881 -0.943734E-08  0.659E-04    1.94      31.6  T
   6    -50.4654881 -0.249516E-08  0.334E-04    1.94      62.5  T
     SCC iter.                  ...        0 min,  0.008 sec
     gradient                   ...        0 min,  0.003 sec
 * total energy  :   -49.8700729 Eh     change       -0.3916020E-04 Eh
   gradient norm :     0.0021808 Eh/α   predicted    -0.2570522E-04 ( -34.36%)
   displ. norm   :     0.1222221 α      lambda       -0.5954242E-04
   maximum displ.:     0.0816516 α      in ANC's #1, #2, #3, ...

........................................................................
.............................. CYCLE    7 ..............................
........................................................................

 iter      E             dE          RMSdq      gap      omega  full diag
   1    -50.4654383 -0.504654E+02  0.609E-02    1.94       0.0  T
   2    -50.4654389 -0.658457E-06  0.355E-02    1.94       1.0  T
   3    -50.4654383  0.637311E-06  0.630E-03    1.94       3.3  T
   4    -50.4654392 -0.900331E-06  0.160E-03    1.94      13.0  T
   5    -50.4654392 -0.108128E-07  0.824E-04    1.94      25.3  T
   6    -50.4654392 -0.330197E-08  0.465E-04    1.94      44.8  T
     SCC iter.                  ...        0 min,  0.005 sec
     gradient                   ...        0 min,  0.003 sec
 * total energy  :   -49.8701234 Eh     change       -0.5049985E-04 Eh
   gradient norm :     0.0033660 Eh/α   predicted    -0.3021677E-04 ( -40.16%)
   displ. norm   :     0.2006071 α      lambda       -0.8956929E-04
   maximum displ.:     0.1317084 α      in ANC's #1, #2, #3, ...

........................................................................
.............................. CYCLE    8 ..............................
........................................................................

 iter      E             dE          RMSdq      gap      omega  full diag
   1    -50.4654955 -0.504655E+02  0.101E-01    1.94       0.0  T
   2    -50.4654970 -0.147684E-05  0.589E-02    1.94       1.0  T
   3    -50.4654964  0.583104E-06  0.766E-03    1.94       2.7  T
   4    -50.4654976 -0.115717E-05  0.256E-03    1.94       8.1  T
   5    -50.4654976 -0.255437E-07  0.114E-03    1.94      18.2  T
   6    -50.4654976 -0.611888E-08  0.688E-04    1.94      30.3  T
   7    -50.4654976 -0.288576E-08  0.497E-04    1.94      42.0  T
     SCC iter.                  ...        0 min,  0.006 sec
     gradient                   ...        0 min,  0.004 sec
 * total energy  :   -49.8701981 Eh     change       -0.7464853E-04 Eh
   gradient norm :     0.0046165 Eh/α   predicted    -0.4659083E-04 ( -37.59%)
   displ. norm   :     0.2691533 α      lambda       -0.1019889E-03
   maximum displ.:     0.1778734 α      in ANC's #1, #2, #3, ...

........................................................................
.............................. CYCLE    9 ..............................
........................................................................

 iter      E             dE          RMSdq      gap      omega  full diag
   1    -50.4651595 -0.504652E+02  0.138E-01    1.93       0.0  T
   2    -50.4651620 -0.250414E-05  0.799E-02    1.93       1.0  T
   3    -50.4651610  0.919929E-06  0.996E-03    1.93       2.1  T
   4    -50.4651630 -0.193357E-05  0.344E-03    1.93       6.1  T
   5    -50.4651630 -0.453694E-07  0.148E-03    1.93      14.1  T
   6    -50.4651630 -0.111547E-07  0.930E-04    1.93      22.4  T
   7    -50.4651630 -0.478389E-08  0.692E-04    1.93      30.1  T
     SCC iter.                  ...        0 min,  0.006 sec
     gradient                   ...        0 min,  0.003 sec
 * total energy  :   -49.8702791 Eh     change       -0.8099502E-04 Eh
   gradient norm :     0.0045994 Eh/α   predicted    -0.5469061E-04 ( -32.48%)
   displ. norm   :     0.2413017 α      lambda       -0.7703216E-04
   maximum displ.:     0.1659301 α      in ANC's #1, #4, #3, ...

........................................................................
.............................. CYCLE   10 ..............................
........................................................................

 iter      E             dE          RMSdq      gap      omega  full diag
   1    -50.4651128 -0.504651E+02  0.124E-01    1.93       0.0  T
   2    -50.4651147 -0.183096E-05  0.724E-02    1.93       1.0  T
   3    -50.4651138  0.832935E-06  0.892E-03    1.93       2.3  T
   4    -50.4651155 -0.163524E-05  0.303E-03    1.93       6.9  T
   5    -50.4651155 -0.324699E-07  0.123E-03    1.93      16.9  T
   6    -50.4651155 -0.944434E-08  0.780E-04    1.93      26.7  T
   7    -50.4651155 -0.316810E-08  0.575E-04    1.93      36.2  T
     SCC iter.                  ...        0 min,  0.006 sec
     gradient                   ...        0 min,  0.003 sec
 * total energy  :   -49.8703383 Eh     change       -0.5923713E-04 Eh
   gradient norm :     0.0032825 Eh/α   predicted    -0.4075911E-04 ( -31.19%)
   displ. norm   :     0.1761006 α      lambda       -0.4813382E-04
   maximum displ.:     0.1283544 α      in ANC's #1, #4, #3, ...

........................................................................
.............................. CYCLE   11 ..............................
........................................................................

 iter      E             dE          RMSdq      gap      omega  full diag
   1    -50.4656609 -0.504657E+02  0.908E-02    1.93       0.0  T
   2    -50.4656618 -0.824881E-06  0.530E-02    1.93       1.0  T
   3    -50.4656611  0.635966E-06  0.678E-03    1.93       3.1  T
   4    -50.4656622 -0.104761E-05  0.207E-03    1.93      10.1  T
   5    -50.4656622 -0.106869E-07  0.768E-04    1.93      27.1  T
   6    -50.4656622 -0.608472E-08  0.438E-04    1.93      47.6  T
     SCC iter.                  ...        0 min,  0.005 sec
     gradient                   ...        0 min,  0.003 sec
 * total energy  :   -49.8703746 Eh     change       -0.3625457E-04 Eh
   gradient norm :     0.0017898 Eh/α   predicted    -0.2481389E-04 ( -31.56%)
   displ. norm   :     0.1865431 α      lambda       -0.2540256E-04
   maximum displ.:     0.1431152 α      in ANC's #1, #4, #3, ...

........................................................................
.............................. CYCLE   12 ..............................
........................................................................

 iter      E             dE          RMSdq      gap      omega  full diag
   1    -50.4660836 -0.504661E+02  0.926E-02    1.93       0.0  T
   2    -50.4660845 -0.851106E-06  0.541E-02    1.93       1.0  T
   3    -50.4660837  0.840259E-06  0.695E-03    1.93       3.0  T
   4    -50.4660849 -0.129217E-05  0.216E-03    1.93       9.6  T
   5    -50.4660850 -0.125006E-07  0.104E-03    1.93      20.1  T
   6    -50.4660850 -0.103658E-07  0.561E-04    1.93      37.1  T
   7    -50.4660850 -0.163834E-08  0.358E-04    1.93      58.2  T
     SCC iter.                  ...        0 min,  0.006 sec
     gradient                   ...        0 min,  0.003 sec
 * total energy  :   -49.8704004 Eh     change       -0.2585658E-04 Eh
   gradient norm :     0.0019930 Eh/α   predicted    -0.1290774E-04 ( -50.08%)
   displ. norm   :     0.0775317 α      lambda       -0.1060561E-04
   maximum displ.:     0.0626980 α      in ANC's #1, #4, #3, ...

........................................................................
.............................. CYCLE   13 ..............................
........................................................................

 iter      E             dE          RMSdq      gap      omega  full diag
   1    -50.4661681 -0.504662E+02  0.365E-02    1.93       0.0  T
   2    -50.4661682 -0.155192E-06  0.215E-02    1.93       1.0  T
   3    -50.4661680  0.228921E-06  0.337E-03    1.93       6.2  T
   4    -50.4661683 -0.311086E-06  0.979E-04    1.93      21.3  T
   5    -50.4661683 -0.478133E-08  0.644E-04    1.93      32.4  T
     SCC iter.                  ...        0 min,  0.005 sec
     gradient                   ...        0 min,  0.003 sec
 * total energy  :   -49.8704139 Eh     change       -0.1346269E-04 Eh
   gradient norm :     0.0017932 Eh/α   predicted    -0.5322616E-05 ( -60.46%)
   displ. norm   :     0.1156953 α      lambda       -0.1780778E-04
   maximum displ.:     0.0928282 α      in ANC's #1, #2, #4, ...

........................................................................
.............................. CYCLE   14 ..............................
........................................................................

 iter      E             dE          RMSdq      gap      omega  full diag
   1    -50.4661384 -0.504661E+02  0.515E-02    1.93       0.0  T
   2    -50.4661389 -0.482146E-06  0.302E-02    1.93       1.0  T
   3    -50.4661384  0.494533E-06  0.539E-03    1.93       3.9  T
   4    -50.4661391 -0.715773E-06  0.151E-03    1.93      13.8  T
   5    -50.4661391 -0.919716E-08  0.927E-04    1.93      22.5  T
   6    -50.4661392 -0.591244E-08  0.480E-04    1.93      43.5  T
     SCC iter.                  ...        0 min,  0.005 sec
     gradient                   ...        0 min,  0.003 sec
 * total energy  :   -49.8704338 Eh     change       -0.1986754E-04 Eh
   gradient norm :     0.0013416 Eh/α   predicted    -0.8958414E-05 ( -54.91%)
   displ. norm   :     0.1146409 α      lambda       -0.1337642E-04
   maximum displ.:     0.0913647 α      in ANC's #1, #2, #4, ...

........................................................................
.............................. CYCLE   15 ..............................
........................................................................

 iter      E             dE          RMSdq      gap      omega  full diag
   1    -50.4656677 -0.504657E+02  0.549E-02    1.93       0.0  T
   2    -50.4656681 -0.396478E-06  0.322E-02    1.93       1.0  T
   3    -50.4656680  0.757789E-07  0.352E-03    1.93       5.9  T
   4    -50.4656682 -0.246839E-06  0.149E-03    1.93      14.0  T
   5    -50.4656682 -0.134879E-07  0.779E-04    1.93      26.8  T
   6    -50.4656683 -0.285971E-08  0.360E-04    1.93      58.0  T
     SCC iter.                  ...        0 min,  0.005 sec
     gradient                   ...        0 min,  0.003 sec
 * total energy  :   -49.8704492 Eh     change       -0.1546670E-04 Eh
   gradient norm :     0.0017297 Eh/α   predicted    -0.6729738E-05 ( -56.49%)
   displ. norm   :     0.1302278 α      lambda       -0.1366413E-04
   maximum displ.:     0.1035119 α      in ANC's #1, #2, #4, ...

........................................................................
.............................. CYCLE   16 ..............................
........................................................................

 iter      E             dE          RMSdq      gap      omega  full diag
   1    -50.4659351 -0.504659E+02  0.627E-02    1.94       0.0  T
   2    -50.4659357 -0.580642E-06  0.368E-02    1.93       1.0  T
   3    -50.4659355  0.212445E-06  0.451E-03    1.93       4.6  T
   4    -50.4659359 -0.447390E-06  0.169E-03    1.93      12.4  T
   5    -50.4659359 -0.133035E-07  0.885E-04    1.93      23.6  T
   6    -50.4659360 -0.690098E-08  0.360E-04    1.93      58.0  T
     SCC iter.                  ...        0 min,  0.005 sec
     gradient                   ...        0 min,  0.003 sec
 * total energy  :   -49.8704623 Eh     change       -0.1308616E-04 Eh
   gradient norm :     0.0013220 Eh/α   predicted    -0.6885263E-05 ( -47.39%)
   displ. norm   :     0.1130962 α      lambda       -0.7873731E-05
   maximum displ.:     0.0880089 α      in ANC's #1, #2, #4, ...

........................................................................
.............................. CYCLE   17 ..............................
........................................................................

 iter      E             dE          RMSdq      gap      omega  full diag
   1    -50.4656549 -0.504657E+02  0.579E-02    1.93       0.0  T
   2    -50.4656556 -0.704249E-06  0.339E-02    1.93       1.0  T
   3    -50.4656555  0.116191E-06  0.412E-03    1.93       5.1  T
   4    -50.4656558 -0.313942E-06  0.174E-03    1.93      11.9  T
   5    -50.4656558 -0.315827E-07  0.881E-04    1.93      23.7  T
   6    -50.4656558 -0.271957E-08  0.397E-04    1.93      52.5  T
     SCC iter.                  ...        0 min,  0.007 sec
     gradient                   ...        0 min,  0.003 sec
 * total energy  :   -49.8704669 Eh     change       -0.4536772E-05 Eh
   gradient norm :     0.0021271 Eh/α   predicted    -0.3962612E-05 ( -12.66%)
   displ. norm   :     0.0078288 α      lambda       -0.3183058E-05
   maximum displ.:     0.0041773 α      in ANC's #1, #3, #5, ...

........................................................................
.............................. CYCLE   18 ..............................
........................................................................

 iter      E             dE          RMSdq      gap      omega  full diag
   1    -50.4657812 -0.504658E+02  0.526E-03    1.93       0.0  T
   2    -50.4657812 -0.564991E-07  0.313E-03    1.93       6.7  T
   3    -50.4657812  0.782344E-08  0.135E-03    1.93      15.4  T
   4    -50.4657812 -0.146196E-07  0.422E-04    1.93      49.4  T
   5    -50.4657812 -0.182987E-08  0.237E-04    1.93      87.9  T
     SCC iter.                  ...        0 min,  0.006 sec
     gradient                   ...        0 min,  0.004 sec
 * total energy  :   -49.8704691 Eh     change       -0.2252010E-05 Eh
   gradient norm :     0.0009599 Eh/α   predicted    -0.1592884E-05 ( -29.27%)
   displ. norm   :     0.0242863 α      lambda       -0.1778761E-05
   maximum displ.:     0.0168002 α      in ANC's #1, #3, #4, ...

   *** GEOMETRY OPTIMIZATION CONVERGED AFTER 18 ITERATIONS ***

------------------------------------------------------------------------
 total energy gain   :        -0.0057473 Eh       -3.6065 kcal/mol
 total RMSD          :         0.4076424 a0        0.2157 Å
 total power (kW/mol):        -0.8383025 (step)  -70.0668 (real)
------------------------------------------------------------------------

 ANCopt (total)                0 d,  0 h,  0 min,  0.215 sec
 optimizer setup                ...        0 min,  0.000 sec (  0.069%)
 model hessian                  ...        0 min,  0.003 sec (  1.179%)
 ANC generation                 ...        0 min,  0.000 sec (  0.192%)
 coordinate transformation      ...        0 min,  0.000 sec (  0.083%)
 single point calculation       ...        0 min,  0.206 sec ( 95.687%)
 optimization log               ...        0 min,  0.003 sec (  1.473%)
 hessian update                 ...        0 min,  0.001 sec (  0.239%)
 rational function              ...        0 min,  0.001 sec (  0.658%)

================
 final structure:
================
23
 xtb: 6.7.1 (edcfbbe)
N            1.18264058333358        0.34929190869704        0.45069088491473
C            1.07435956477188       -0.93385252729541        0.10217226854482
C           -0.17997138167787       -1.49893866849234       -0.14273429740560
C           -1.27577347773371       -0.64875395100355       -0.03224756248712
N           -1.14880053755662        0.63266613907637        0.29491530056698
C            0.07605136961386        1.05946833873299        0.52733113432330
C           -2.66994396078870       -1.13294324229387       -0.29003602654125
O           -3.61844531716639       -0.42866709268769       -0.49306431192465
O           -2.74358270912792       -2.47120698670731       -0.27507542079747
C            2.33746689698798       -1.68399444886506        0.03657018081692
C            3.41271170297710       -1.25578763221614        0.81675193637593
C            4.61856707870529       -1.92708809214819        0.79572153709210
C            4.78818771554504       -3.03883032106279       -0.01254727727802
C            3.74045441767109       -3.47269348499149       -0.80976687033414
C            2.52502267958958       -2.79725531463162       -0.78113247476926
F            1.53856041260507       -3.22382704305111       -1.58831522419476
Cl           3.93264873180026       -4.84327782543765       -1.84000091257619
H           -0.31513134104233       -2.53569430970354       -0.39641121520537
H            0.18491886941793        2.09873827215540        0.80897421683612
H           -3.65451509110894       -2.75607167091078       -0.45225739456828
H            3.27024817983168       -0.38392379551839        1.43494259765503
H            5.43679311640317       -1.58491786660847        1.40974420938379
H            5.72586249694886       -3.57025038503704       -0.03669527842783

 Bond Distances (Angstroems)
 ---------------------------
N1-C2=1.3340         N1-C6=1.3171         C2-N1=1.3340         C2-C3=1.3974         C2-C10=1.4705        C3-C2=1.3974         
C3-C4=1.3913         C3-H18=1.0759        C4-C3=1.3913         C4-N5=1.3286         C4-C7=1.4982         N5-C4=1.3286         
N5-C6=1.3177         C6-N1=1.3171         C6-N5=1.3177         C6-H19=1.0822        C7-C4=1.4982         C7-O8=1.1987         
C7-O9=1.3404         O8-C7=1.1987         O9-C7=1.3404         O9-H20=0.9707        C10-C2=1.4705        C10-C11=1.3958       
C10-C15=1.3940       C11-C10=1.3958       C11-C12=1.3803       C11-H21=1.0782       C12-C11=1.3803       C12-C13=1.3849       
C12-H22=1.0787       C13-C12=1.3849       C13-C14=1.3862       C13-H23=1.0781       C14-C13=1.3862       C14-C15=1.3908       
C14-Cl17=1.7253      C15-C10=1.3940       C15-C14=1.3908       C15-F16=1.3441       F16-C15=1.3441       Cl17-C14=1.7253      
H18-C3=1.0759        H19-C6=1.0822        H20-O9=0.9707        H21-C11=1.0782       H22-C12=1.0787       H23-C13=1.0781       
 C  H  Rav=1.0786 sigma=0.0021  Rmin=1.0759  Rmax=1.0822     5
 C  C  Rav=1.4089 sigma=0.0385  Rmin=1.3803  Rmax=1.4982    10
 N  C  Rav=1.3244 sigma=0.0072  Rmin=1.3171  Rmax=1.3340     4
 O  H  Rav=0.9707 sigma=0.0000  Rmin=0.9707  Rmax=0.9707     1
 O  C  Rav=1.2695 sigma=0.0708  Rmin=1.1987  Rmax=1.3404     2
 F  C  Rav=1.3441 sigma=0.0000  Rmin=1.3441  Rmax=1.3441     1
 Cl C  Rav=1.7253 sigma=0.0000  Rmin=1.7253  Rmax=1.7253     1

 selected bond angles (degree)
 --------------------
C6-N1-C2=117.75                C3-C2-N1=120.50                C10-C2-N1=115.63               C10-C2-C3=123.84               
C4-C3-C2=116.48                H18-C3-C2=122.94               H18-C3-C4=120.57               N5-C4-C3=122.25                
C7-C4-C3=121.45                C7-C4-N5=116.30                C6-N5-C4=116.40                N5-C6-N1=126.59                
H19-C6-N1=116.64               H19-C6-N5=116.77               O8-C7-C4=125.14                O9-C7-C4=111.83                
O9-C7-O8=123.03                H20-O9-C7=110.03               C11-C10-C2=118.70              C15-C10-C2=123.31              
C15-C10-C11=117.99             

 selected dihedral angles (degree)
 ---------------------------------
C3-C2-N1-C6=358.68            C10-C2-N1-C6=180.25           C4-C3-C2-N1=  1.42            C4-C3-C2-C10=179.72           
H18-C3-C2-N1=181.93           H18-C3-C2-C10=  0.23          N5-C4-C3-C2=359.66            N5-C4-C3-H18=179.17           
C7-C4-C3-C2=179.12            C7-C4-C3-H18=358.62           C6-N5-C4-C3=359.22            C6-N5-C4-C7=179.74            
N5-C6-N1-C2=  0.10            H19-C6-N1-C2=180.16           N1-C6-N5-C4=  0.95            H19-C6-N5-C4=180.90           
O8-C7-C4-C3=196.62            O8-C7-C4-N5= 16.11            O9-C7-C4-C3= 16.33            O9-C7-C4-N5=195.81            
H20-O9-C7-C4=180.50           H20-O9-C7-O8=  0.21           C11-C10-C2-N1= 25.90          C11-C10-C2-C3=207.52          
C15-C10-C2-N1=206.74          C15-C10-C2-C3= 28.36          
           -------------------------------------------------
          |                Final Singlepoint                |
           -------------------------------------------------

          ...................................................
          :                      SETUP                      :
          :.................................................:
          :  # basis functions                  80          :
          :  # atomic orbitals                  79          :
          :  # shells                           41          :
          :  # electrons                        86          :
          :  max. iterations                   250          :
          :  Hamiltonian                  GFN2-xTB          :
          :  restarted?                      false          :
          :  GBSA solvation                  false          :
          :  PC potential                    false          :
          :  electronic temp.          300.0000000     K    :
          :  accuracy                    1.0000000          :
          :  -> integral cutoff          0.2500000E+02      :
          :  -> integral neglect         0.1000000E-07      :
          :  -> SCF convergence          0.1000000E-05 Eh   :
          :  -> wf. convergence          0.1000000E-03 e    :
          :  Broyden damping             0.4000000          :
          :  net charge                          0          :
          :  unpaired electrons                  0          :
          ...................................................

 iter      E             dE          RMSdq      gap      omega  full diag
   1    -50.4657812 -0.504658E+02  0.191E-04    1.93       0.0  T
   2    -50.4657812 -0.122135E-09  0.160E-04    1.93     130.0  T
   3    -50.4657812 -0.936637E-10  0.130E-04    1.93     159.9  T

   *** convergence criteria satisfied after 3 iterations ***

         #    Occupation            Energy/Eh            Energy/eV
      -------------------------------------------------------------
         1        2.0000           -1.0705861             -29.1321
       ...           ...                  ...                  ...
        37        2.0000           -0.4599443             -12.5157
        38        2.0000           -0.4400287             -11.9738
        39        2.0000           -0.4347592             -11.8304
        40        2.0000           -0.4341927             -11.8150
        41        2.0000           -0.4188356             -11.3971
        42        2.0000           -0.4183762             -11.3846
        43        2.0000           -0.3855015             -10.4900 (HOMO)
        44                         -0.3144432              -8.5564 (LUMO)
        45                         -0.2906534              -7.9091
        46                         -0.2625790              -7.1451
        47                         -0.2492062              -6.7812
        48                         -0.2172816              -5.9125
       ...                                ...                  ...
        79                          0.6827296              18.5780
      -------------------------------------------------------------
                  HL-Gap            0.0710583 Eh            1.9336 eV
             Fermi-level           -0.3499724 Eh           -9.5232 eV

 SCC (total)                   0 d,  0 h,  0 min,  0.007 sec
 SCC setup                      ...        0 min,  0.000 sec (  1.097%)
 Dispersion                     ...        0 min,  0.000 sec (  1.245%)
 classical contributions        ...        0 min,  0.000 sec (  0.216%)
 integral evaluation            ...        0 min,  0.001 sec ( 16.973%)
 iterations                     ...        0 min,  0.003 sec ( 38.721%)
 molecular gradient             ...        0 min,  0.003 sec ( 40.499%)
 printout                       ...        0 min,  0.000 sec (  1.048%)

         :::::::::::::::::::::::::::::::::::::::::::::::::::::
         ::                     SUMMARY                     ::
         :::::::::::::::::::::::::::::::::::::::::::::::::::::
         :: total energy             -49.870469108026 Eh    ::
         :: gradient norm              0.000959695686 Eh/a0 ::
         :: HOMO-LUMO gap              1.933595410854 eV    ::
         ::.................................................::
         :: SCC energy               -50.465842035339 Eh    ::
         :: -> isotropic ES            0.074426054565 Eh    ::
         :: -> anisotropic ES          0.001533958671 Eh    ::
         :: -> anisotropic XC          0.017898804453 Eh    ::
         :: -> dispersion             -0.025307215182 Eh    ::
         :: repulsion energy           0.595372927313 Eh    ::
         :: add. restraining           0.000000000000 Eh    ::
         :: total charge              -0.000000000000 e     ::
         :::::::::::::::::::::::::::::::::::::::::::::::::::::

           -------------------------------------------------
          |                Property Printout                |
           -------------------------------------------------

    * Orbital Energies and Occupations

         #    Occupation            Energy/Eh            Energy/eV
      -------------------------------------------------------------
         1        2.0000           -1.0705861             -29.1321
       ...           ...                  ...                  ...
        31        2.0000           -0.5009740             -13.6322
        32        2.0000           -0.4933963             -13.4260
        33        2.0000           -0.4881162             -13.2823
        34        2.0000           -0.4770718             -12.9818
        35        2.0000           -0.4707526             -12.8098
        36        2.0000           -0.4649134             -12.6509
        37        2.0000           -0.4599443             -12.5157
        38        2.0000           -0.4400287             -11.9738
        39        2.0000           -0.4347592             -11.8304
        40        2.0000           -0.4341927             -11.8150
        41        2.0000           -0.4188356             -11.3971
        42        2.0000           -0.4183762             -11.3846
        43        2.0000           -0.3855015             -10.4900 (HOMO)
        44                         -0.3144432              -8.5564 (LUMO)
        45                         -0.2906534              -7.9091
        46                         -0.2625790              -7.1451
        47                         -0.2492062              -6.7812
        48                         -0.2172816              -5.9125
        49                         -0.1563894              -4.2556
        50                         -0.1463835              -3.9833
        51                         -0.1138552              -3.0982
        52                         -0.0032894              -0.0895
        53                          0.0036400               0.0991
        54                          0.0037175               0.1012
       ...                                ...                  ...
        79                          0.6827296              18.5780
      -------------------------------------------------------------
                  HL-Gap            0.0710583 Eh            1.9336 eV
             Fermi-level           -0.3499724 Eh           -9.5232 eV

     #   Z          covCN         q      C6AA      α(0)
     1   7 N        1.844    -0.233    26.940     7.692
     2   6 C        2.977     0.123    25.295     8.250
     3   6 C        2.909    -0.043    29.079     8.842
     4   6 C        2.985     0.089    26.021     8.368
     5   7 N        1.839    -0.212    26.449     7.622
     6   6 C        2.913     0.153    24.687     8.147
     7   6 C        2.695     0.355    20.978     7.496
     8   8 O        0.856    -0.367    21.039     6.150
     9   8 O        1.660    -0.373    20.339     6.088
    10   6 C        2.976    -0.007    28.185     8.708
    11   6 C        2.928    -0.029    28.729     8.790
    12   6 C        2.917    -0.029    28.730     8.790
    13   6 C        2.954    -0.037    28.917     8.820
    14   6 C        2.883     0.082    26.159     8.385
    15   6 C        2.819     0.160    24.524     8.114
    16   9 F        0.787    -0.200    11.237     3.960
    17  17 Cl       0.962    -0.135   103.363    15.554
    18   1 H        0.926     0.082     1.962     2.191
    19   1 H        0.925     0.061     2.182     2.310
    20   1 H        0.804     0.336     0.621     1.238
    21   1 H        0.926     0.082     1.957     2.187
    22   1 H        0.926     0.066     2.127     2.281
    23   1 H        0.926     0.075     2.027     2.226

 Mol. C6AA /au·bohr⁶  :       9444.931541
 Mol. C8AA /au·bohr⁸  :     249517.671579
 Mol. α(0) /au        :        152.208381


Wiberg/Mayer (AO) data.
largest (>0.10) Wiberg bond orders for each atom

 ---------------------------------------------------------------------------
     #   Z sym  total        # sym  WBO       # sym  WBO       # sym  WBO
 ---------------------------------------------------------------------------
     1   7 N    3.067 --     6 C    1.439     2 C    1.380
     2   6 C    3.978 --     1 N    1.380     3 C    1.372    10 C    1.052
     3   6 C    3.986 --     4 C    1.406     2 C    1.372    18 H    0.961
                             6 C    0.107
     4   6 C    3.978 --     3 C    1.406     5 N    1.396     7 C    0.965
     5   7 N    3.065 --     6 C    1.430     4 C    1.396
     6   6 C    3.963 --     1 N    1.439     5 N    1.430    19 H    0.954
                             3 C    0.107
     7   6 C    3.921 --     8 O    1.782     9 O    1.128     4 C    0.965
     8   8 O    2.075 --     7 C    1.782     9 O    0.182
     9   8 O    2.203 --     7 C    1.128    20 H    0.862     8 O    0.182
    10   6 C    3.986 --    11 C    1.371    15 C    1.348     2 C    1.052
    11   6 C    3.985 --    12 C    1.454    10 C    1.371    21 H    0.962
    12   6 C    3.989 --    11 C    1.454    13 C    1.428    22 H    0.966
    13   6 C    3.978 --    12 C    1.428    14 C    1.399    23 H    0.965
    14   6 C    3.928 --    13 C    1.399    15 C    1.360    17 Cl   0.998
    15   6 C    3.892 --    14 C    1.360    10 C    1.348    16 F    0.976
    16   9 F    1.120 --    15 C    0.976
    17  17 Cl   1.144 --    14 C    0.998
    18   1 H    0.993 --     3 C    0.961
    19   1 H    0.995 --     6 C    0.954
    20   1 H    0.886 --     9 O    0.862
    21   1 H    0.993 --    11 C    0.962
    22   1 H    0.995 --    12 C    0.966
    23   1 H    0.994 --    13 C    0.965
 ---------------------------------------------------------------------------

Topologies differ in total number of bonds
Writing topology from bond orders to xtbtopo.mol

molecular dipole:
                 x           y           z       tot (Debye)
 q only:        1.283      -0.216       0.965
   full:        1.186      -0.871       0.672       4.113
molecular quadrupole (traceless):
                xx          xy          yy          xz          yz          zz
 q only:       10.156       8.283      -5.793       7.883      -7.349      -4.363
  q+dip:        7.961       7.499      -1.784       5.766      -2.778      -6.177
   full:        5.086       8.461      -2.586       4.558      -4.666      -2.500

           -------------------------------------------------
          |                Geometry Summary                 |
           -------------------------------------------------

      molecular mass/u    :      252.6292964
   center of mass at/Å    :        1.1860693      -1.9101263      -0.3639391
  moments of inertia/u·Å² :        0.5946051E+03   0.2189314E+04   0.2709652E+04
rotational constants/cm⁻¹ :        0.2835097E-01   0.7699962E-02   0.6221327E-02

 * 21 selected distances

     #   Z          #   Z                                           value/Å
     1   7 N        2   6 C                                       1.3340352
     2   6 C        3   6 C                                       1.3973718
     3   6 C        4   6 C                                       1.3913317
     4   6 C        5   7 N                                       1.3286066
     1   7 N        6   6 C                                       1.3171045
     5   7 N        6   6 C                                       1.3177404
     7   6 C        8   8 O                                       1.1986995
     7   6 C        9   8 O                                       1.3403718
    10   6 C       11   6 C                                       1.3957781
    11   6 C       12   6 C                                       1.3802805
    12   6 C       13   6 C                                       1.3849335
    13   6 C       14   6 C                                       1.3861969
    10   6 C       15   6 C                                       1.3939745
    14   6 C       15   6 C                                       1.3907952
    14   6 C       17  17 Cl                                      1.7253472 (max)
     3   6 C       18   1 H                                       1.0758637
     6   6 C       19   1 H                                       1.0822464
     9   8 O       20   1 H                                       0.9707416 (min)
    11   6 C       21   1 H                                       1.0782404
    12   6 C       22   1 H                                       1.0787022
    13   6 C       23   1 H                                       1.0780652

 * 6 distinct bonds (by element types)

   Z      Z             #   av. dist./Å        max./Å        min./Å
   1 H    6 C           5     1.0786236     1.0822464     1.0758637
   6 C    6 C           8     1.3900828     1.3973718     1.3802805
   6 C    7 N           4     1.3243717     1.3340352     1.3171045
   1 H    8 O           1     0.9707416     0.9707416     0.9707416
   6 C    8 O           2     1.2695357     1.3403718     1.1986995
   6 C   17 Cl          1     1.7253472     1.7253472     1.7253472


optimized geometry written to: xtbopt.xyz


           -------------------------------------------------
          | TOTAL ENERGY              -49.870469108026 Eh   |
          | GRADIENT NORM               0.000959695686 Eh/α |
          | HOMO-LUMO GAP               1.933595410854 eV   |
           -------------------------------------------------

------------------------------------------------------------------------
 * finished run on 2024/12/17 at 14:08:03.764     
------------------------------------------------------------------------
 total:
 * wall-time:     0 d,  0 h,  0 min,  0.261 sec
 *  cpu-time:     0 d,  0 h,  0 min,  2.029 sec
 * ratio c/w:     7.762 speedup
 SCF:
 * wall-time:     0 d,  0 h,  0 min,  0.020 sec
 *  cpu-time:     0 d,  0 h,  0 min,  0.158 sec
 * ratio c/w:     7.945 speedup
 ANC optimizer:
 * wall-time:     0 d,  0 h,  0 min,  0.224 sec
 *  cpu-time:     0 d,  0 h,  0 min,  1.746 sec
 * ratio c/w:     7.797 speedup

