23
 energy: -49.870469108026 gnorm: 0.000959695686 xtb: 6.7.1 (edcfbbe)
N            1.18264058333358        0.34929190869704        0.45069088491473
C            1.07435956477188       -0.93385252729541        0.10217226854482
C           -0.17997138167787       -1.49893866849234       -0.14273429740560
C           -1.27577347773371       -0.64875395100355       -0.03224756248712
N           -1.14880053755662        0.63266613907637        0.29491530056698
C            0.07605136961386        1.05946833873299        0.52733113432330
C           -2.66994396078870       -1.13294324229387       -0.29003602654125
O           -3.61844531716639       -0.42866709268769       -0.49306431192465
O           -2.74358270912792       -2.47120698670731       -0.27507542079747
C            2.33746689698798       -1.68399444886506        0.03657018081692
C            3.41271170297710       -1.25578763221614        0.81675193637593
C            4.61856707870529       -1.92708809214819        0.79572153709210
C            4.78818771554504       -3.03883032106279       -0.01254727727802
C            3.74045441767109       -3.47269348499149       -0.80976687033414
C            2.52502267958958       -2.79725531463162       -0.78113247476926
F            1.53856041260507       -3.22382704305111       -1.58831522419476
Cl           3.93264873180026       -4.84327782543765       -1.84000091257619
H           -0.31513134104233       -2.53569430970354       -0.39641121520537
H            0.18491886941793        2.09873827215540        0.80897421683612
H           -3.65451509110894       -2.75607167091078       -0.45225739456828
H            3.27024817983168       -0.38392379551839        1.43494259765503
H            5.43679311640317       -1.58491786660847        1.40974420938379
H            5.72586249694886       -3.57025038503704       -0.03669527842783
