      -----------------------------------------------------------      
     |                   =====================                   |     
     |                           x T B                           |     
     |                   =====================                   |     
     |                         S. Grimme                         |     
     |          Mulliken Center for Theoretical Chemistry        |     
     |                    University of Bonn                     |     
      -----------------------------------------------------------      

   * xtb version 6.7.1 (edcfbbe) compiled by 'conda@3ef47c1a292c' on 2024-11-25

   xtb is free software: you can redistribute it and/or modify it under
   the terms of the GNU Lesser General Public License as published by
   the Free Software Foundation, either version 3 of the License, or
   (at your option) any later version.
   
   xtb is distributed in the hope that it will be useful,
   but WITHOUT ANY WARRANTY; without even the implied warranty of
   MERCHANTABILITY or FITNESS FOR A PARTICULAR PURPOSE.  See the
   GNU Lesser General Public License for more details.
   
   Cite this work as:
   * C. Bannwarth, E. Caldeweyher, S. Ehlert, A. Hansen, P. Pracht,
     J. Seibert, S. Spicher, S. Grimme, WIREs Comput. Mol. Sci., 2020, 11,
     e01493. DOI: 10.1002/wcms.1493
   
   for GFN2-xTB:
   * C. Bannwarth, S. Ehlert and S. Grimme., J. Chem. Theory Comput., 2019,
     15, 1652-1671. DOI: 10.1021/acs.jctc.8b01176
   for GFN1-xTB:
   * S. Grimme, C. Bannwarth, P. Shushkov, J. Chem. Theory Comput., 2017,
     13, 1989-2009. DOI: 10.1021/acs.jctc.7b00118
   for GFN0-xTB:
   * P. Pracht, E. Caldeweyher, S. Ehlert, S. Grimme, ChemRxiv, 2019, preprint.
     DOI: 10.26434/chemrxiv.8326202.v1
   for GFN-FF:
   * S. Spicher and S. Grimme, Angew. Chem. Int. Ed., 2020, 59, 15665-15673.
     DOI: 10.1002/anie.202004239
   
   for ALPB and GBSA implicit solvation:
   * S. Ehlert, M. Stahn, S. Spicher, S. Grimme, J. Chem. Theory Comput.,
     2021, 17, 4250-4261. DOI: 10.1021/acs.jctc.1c00471
   
   for ddCOSMO and CPCM-X implicit solvation:
   * M. Stahn, S. Ehlert, S. Grimme, J. Phys. Chem. A,
     2023, XX, XXXX-XXXX. DOI: 10.1021/acs.jpca.3c04382
   
   for DFT-D4:
   * E. Caldeweyher, C. Bannwarth and S. Grimme, J. Chem. Phys., 2017,
     147, 034112. DOI: 10.1063/1.4993215
   * E. Caldeweyher, S. Ehlert, A. Hansen, H. Neugebauer, S. Spicher,
     C. Bannwarth and S. Grimme, J. Chem. Phys., 2019, 150, 154122.
     DOI: 10.1063/1.5090222
   * E. Caldeweyher, J.-M. Mewes, S. Ehlert and S. Grimme, Phys. Chem. Chem. Phys.
     2020, 22, 8499-8512. DOI: 10.1039/D0CP00502A
   
   for sTDA-xTB:
   * S. Grimme and C. Bannwarth, J. Chem. Phys., 2016, 145, 054103.
     DOI: 10.1063/1.4959605
   
   in the mass-spec context:
   * V. Asgeirsson, C. Bauer and S. Grimme, Chem. Sci., 2017, 8, 4879.
     DOI: 10.1039/c7sc00601b
   * J. Koopman and S. Grimme, ACS Omega 2019, 4, 12, 15120-15133.
     DOI: 10.1021/acsomega.9b02011
   
   for metadynamics refer to:
   * S. Grimme, J. Chem. Theory Comput., 2019, 155, 2847-2862
     DOI: 10.1021/acs.jctc.9b00143
   
   for SPH calculations refer to:
   * S. Spicher and S. Grimme, J. Chem. Theory Comput., 2021, 17, 1701-1714
     DOI: 10.1021/acs.jctc.0c01306
   
   for ONIOM refer to:
   * C. Plett, A. Katbashev, S. Ehlert, S. Grimme, M. Bursch,
     Phys. Chem. Chem. Phys., 2023, 25, 17860-17868. DOI: 10.1039/D3CP02178E
   
   for DIPRO refer to:
   * J. Kohn, N. Gildemeister, S. Grimme, D. Fazzi, A. Hansen,
     J. Chem. Phys., 2023, just accepted.
   
   for PTB refer to:
   * S. Grimme, M. Mueller, A. Hansen, J. Chem. Phys., 2023, 158, 124111.
     DOI: 10.1063/5.0137838
   
   with help from (in alphabetical order)
   P. Atkinson, C. Bannwarth, F. Bohle, G. Brandenburg, E. Caldeweyher
   M. Checinski, S. Dohm, S. Ehlert, S. Ehrlich, I. Gerasimov, C. Hölzer
   A. Katbashev, J. Kohn, J. Koopman, C. Lavigne, S. Lehtola, F. März, M. Müller,
   F. Musil, H. Neugebauer, J. Pisarek, C. Plett, P. Pracht, F. Pultar,
   J. Seibert, P. Shushkov, S. Spicher, M. Stahn, M. Steiner, T. Strunk,
   J. Stückrath, T. Rose, and J. Unsleber
   
 * started run on 2024/12/17 at 14:07:59.825     
   ID    Z sym.   atoms
    1    7 N      1, 5
    2    6 C      2-4, 6, 7, 10-15
    3    8 O      8, 9
    4    9 F      16, 17
    5    1 H      18-23

           -------------------------------------------------
          |                Calculation Setup                |
           -------------------------------------------------

          program call               : xtb K002.xyz --opt --namespace K002
          calculation namespace      : K002
          coordinate file            : K002.xyz
          omp threads                :                     8


           -------------------------------------------------
          |                 G F N 2 - x T B                 |
           -------------------------------------------------

        Reference                      10.1021/acs.jctc.8b01176
      * Hamiltonian:
        H0-scaling (s, p, d)           1.850000    2.230000    2.230000
        zeta-weighting                 0.500000
      * Dispersion:
        s8                             2.700000
        a1                             0.520000
        a2                             5.000000
        s9                             5.000000
      * Repulsion:
        kExp                           1.500000    1.000000
        rExp                           1.000000
      * Coulomb:
        alpha                          2.000000
        third order                    shell-resolved
        anisotropic                    true
        a3                             3.000000
        a5                             4.000000
        cn-shift                       1.200000
        cn-exp                         4.000000
        max-rad                        5.000000


          ...................................................
          :                      SETUP                      :
          :.................................................:
          :  # basis functions                  74          :
          :  # atomic orbitals                  74          :
          :  # shells                           40          :
          :  # electrons                        86          :
          :  max. iterations                   250          :
          :  Hamiltonian                  GFN2-xTB          :
          :  restarted?                      false          :
          :  GBSA solvation                  false          :
          :  PC potential                    false          :
          :  electronic temp.          300.0000000     K    :
          :  accuracy                    1.0000000          :
          :  -> integral cutoff          0.2500000E+02      :
          :  -> integral neglect         0.1000000E-07      :
          :  -> SCF convergence          0.1000000E-05 Eh   :
          :  -> wf. convergence          0.1000000E-03 e    :
          :  Broyden damping             0.4000000          :
          :  net charge                          0          :
          :  unpaired electrons                  0          :
          ...................................................

 iter      E             dE          RMSdq      gap      omega  full diag
   1    -50.5423356 -0.505423E+02  0.515E+00    2.26       0.0  T
   2    -50.5941908 -0.518552E-01  0.312E+00    2.23       1.0  T
   3    -50.5913108  0.287992E-02  0.149E+00    1.98       1.0  T
   4    -50.6061323 -0.148214E-01  0.306E-01    1.89       1.0  T
   5    -50.6080275 -0.189520E-02  0.118E-01    1.87       1.0  T
   6    -50.6082135 -0.186032E-03  0.450E-02    1.87       1.0  T
   7    -50.6082215 -0.799399E-05  0.210E-02    1.87       1.0  T
   8    -50.6082261 -0.463983E-05  0.874E-03    1.87       2.4  T
   9    -50.6082265 -0.324409E-06  0.302E-03    1.87       6.9  T
  10    -50.6082265 -0.789986E-07  0.134E-03    1.87      15.5  T
  11    -50.6082266 -0.129525E-07  0.469E-04    1.87      44.4  T
  12    -50.6082266 -0.619401E-09  0.234E-04    1.87      89.1  T

   *** convergence criteria satisfied after 12 iterations ***

         #    Occupation            Energy/Eh            Energy/eV
      -------------------------------------------------------------
         1        2.0000           -0.8430370             -22.9402
       ...           ...                  ...                  ...
        37        2.0000           -0.4696771             -12.7806
        38        2.0000           -0.4649496             -12.6519
        39        2.0000           -0.4473455             -12.1729
        40        2.0000           -0.4447036             -12.1010
        41        2.0000           -0.4332465             -11.7892
        42        2.0000           -0.4286011             -11.6628
        43        2.0000           -0.3948973             -10.7457 (HOMO)
        44                         -0.3260601              -8.8725 (LUMO)
        45                         -0.2953730              -8.0375
        46                         -0.2711659              -7.3788
        47                         -0.2601526              -7.0791
        48                         -0.2308162              -6.2808
       ...                                ...                  ...
        74                          0.6266999              17.0534
      -------------------------------------------------------------
                  HL-Gap            0.0688372 Eh            1.8732 eV
             Fermi-level           -0.3604787 Eh           -9.8091 eV

 SCC (total)                   0 d,  0 h,  0 min,  0.016 sec
 SCC setup                      ...        0 min,  0.000 sec (  0.748%)
 Dispersion                     ...        0 min,  0.000 sec (  1.340%)
 classical contributions        ...        0 min,  0.000 sec (  0.262%)
 integral evaluation            ...        0 min,  0.001 sec (  7.274%)
 iterations                     ...        0 min,  0.012 sec ( 74.764%)
 molecular gradient             ...        0 min,  0.002 sec ( 14.803%)
 printout                       ...        0 min,  0.000 sec (  0.717%)

         :::::::::::::::::::::::::::::::::::::::::::::::::::::
         ::                     SUMMARY                     ::
         :::::::::::::::::::::::::::::::::::::::::::::::::::::
         :: total energy             -50.040317937731 Eh    ::
         :: gradient norm              0.073741363580 Eh/a0 ::
         :: HOMO-LUMO gap              1.873155247670 eV    ::
         ::.................................................::
         :: SCC energy               -50.608282292297 Eh    ::
         :: -> isotropic ES            0.081878350584 Eh    ::
         :: -> anisotropic ES          0.004257094478 Eh    ::
         :: -> anisotropic XC          0.014621898107 Eh    ::
         :: -> dispersion             -0.023205125354 Eh    ::
         :: repulsion energy           0.567964354565 Eh    ::
         :: add. restraining           0.000000000000 Eh    ::
         :: total charge               0.000000000000 e     ::
         :::::::::::::::::::::::::::::::::::::::::::::::::::::

      ----------------------------------------------------------- 
     |                   =====================                   |
     |                        A N C O P T                        |
     |                   =====================                   |
     |               Approximate Normal Coordinate               |
     |                Rational Function Optimizer                |
      ----------------------------------------------------------- 
      ----------------------------------------------------------- 
     |                   =====================                   |
     |                        A N C O P T                        |
     |                   =====================                   |
     |               Approximate Normal Coordinate               |
     |                Rational Function Optimizer                |
      ----------------------------------------------------------- 

          ...................................................
          :                      SETUP                      :
          :.................................................:
          :   optimization level            normal          :
          :   max. optcycles                   200          :
          :   ANC micro-cycles                  20          :
          :   degrees of freedom                63          :
          :.................................................:
          :   RF solver                   davidson          :
          :   write xtbopt.log                true          :
          :   linear?                        false          :
          :   energy convergence         0.5000000E-05 Eh   :
          :   grad. convergence          0.1000000E-02 Eh/α :
          :   maxmium RF displ.          1.0000000          :
          :   Hlow (freq-cutoff)         0.1000000E-01      :
          :   Hmax (freq-cutoff)         5.0000000          :
          :   S6 in model hess.         20.0000000          :
          ...................................................

generating ANC from exact Hessian ...
Using Lindh-Hessian (1995)
 Shifting diagonal of input Hessian by    8.8828458143253991E-003
 Lowest  eigenvalues of input Hessian
    0.000000    0.000000    0.000000    0.000000    0.000000    0.000000
    0.010000    0.010702    0.011279    0.014933    0.016861    0.020879
    0.023583    0.027072    0.030433    0.033780    0.038939    0.039642
 Highest eigenvalues
    1.981565    2.053768    2.070672    2.113363    2.139000    2.330979


........................................................................
.............................. CYCLE    1 ..............................
........................................................................

 iter      E             dE          RMSdq      gap      omega  full diag
   1    -50.6082266 -0.506082E+02  0.874E-05    1.87       0.0  T
   2    -50.6082266 -0.251603E-10  0.574E-05    1.87     363.4  T
   3    -50.6082266 -0.993339E-11  0.372E-05    1.87     560.8  T
     SCC iter.                  ...        0 min,  0.003 sec
     gradient                   ...        0 min,  0.002 sec
 * total energy  :   -50.0403179 Eh     change       -0.5120455E-09 Eh
   gradient norm :     0.0737430 Eh/α   predicted     0.0000000E+00 (-100.00%)
   displ. norm   :     0.1615332 α      lambda       -0.6557398E-02
   maximum displ.:     0.0774002 α      in ANC's #11, #31, #24, ...

........................................................................
.............................. CYCLE    2 ..............................
........................................................................

 iter      E             dE          RMSdq      gap      omega  full diag
   1    -50.6387551 -0.506388E+02  0.147E-01    1.93       0.0  T
   2    -50.6388267 -0.715849E-04  0.102E-01    1.92       1.0  T
   3    -50.6388331 -0.643815E-05  0.509E-02    1.92       1.0  T
   4    -50.6388519 -0.187821E-04  0.140E-02    1.92       1.5  T
   5    -50.6388541 -0.218735E-05  0.381E-03    1.92       5.5  T
   6    -50.6388542 -0.108785E-06  0.209E-03    1.92      10.0  T
   7    -50.6388542 -0.232179E-07  0.813E-04    1.92      25.6  T
   8    -50.6388543 -0.108198E-07  0.271E-04    1.92      77.0  T
     SCC iter.                  ...        0 min,  0.006 sec
     gradient                   ...        0 min,  0.002 sec
 * total energy  :   -50.0446933 Eh     change       -0.4375313E-02 Eh
   gradient norm :     0.0238031 Eh/α   predicted    -0.3364474E-02 ( -23.10%)
   displ. norm   :     0.1485671 α      lambda       -0.1508738E-02
   maximum displ.:     0.0677129 α      in ANC's #1, #24, #11, ...

........................................................................
.............................. CYCLE    3 ..............................
........................................................................

 iter      E             dE          RMSdq      gap      omega  full diag
   1    -50.6502647 -0.506503E+02  0.101E-01    1.94       0.0  T
   2    -50.6502833 -0.185488E-04  0.655E-02    1.94       1.0  T
   3    -50.6502776  0.568103E-05  0.331E-02    1.94       1.0  T
   4    -50.6502920 -0.144380E-04  0.658E-03    1.94       3.2  T
   5    -50.6502925 -0.440612E-06  0.248E-03    1.94       8.4  T
   6    -50.6502925 -0.303816E-07  0.131E-03    1.94      15.9  T
   7    -50.6502925 -0.765230E-08  0.489E-04    1.94      42.6  T
   8    -50.6502925 -0.422126E-08  0.197E-04    1.94     106.0  T
     SCC iter.                  ...        0 min,  0.006 sec
     gradient                   ...        0 min,  0.002 sec
 * total energy  :   -50.0455891 Eh     change       -0.8958297E-03 Eh
   gradient norm :     0.0075645 Eh/α   predicted    -0.7711318E-03 ( -13.92%)
   displ. norm   :     0.1256148 α      lambda       -0.2965065E-03
   maximum displ.:     0.0797367 α      in ANC's #1, #2, #4, ...

........................................................................
.............................. CYCLE    4 ..............................
........................................................................

 iter      E             dE          RMSdq      gap      omega  full diag
   1    -50.6502380 -0.506502E+02  0.679E-02    1.94       0.0  T
   2    -50.6502397 -0.173219E-05  0.396E-02    1.94       1.0  T
   3    -50.6502369  0.284543E-05  0.123E-02    1.94       1.7  T
   4    -50.6502404 -0.356722E-05  0.239E-03    1.94       8.7  T
   5    -50.6502405 -0.410071E-07  0.120E-03    1.94      17.3  T
   6    -50.6502405 -0.860229E-08  0.478E-04    1.94      43.6  T
   7    -50.6502405 -0.394074E-09  0.200E-04    1.94     104.1  T
     SCC iter.                  ...        0 min,  0.006 sec
     gradient                   ...        0 min,  0.002 sec
 * total energy  :   -50.0458172 Eh     change       -0.2281277E-03 Eh
   gradient norm :     0.0065336 Eh/α   predicted    -0.1505980E-03 ( -33.99%)
   displ. norm   :     0.2217674 α      lambda       -0.3053932E-03
   maximum displ.:     0.1441237 α      in ANC's #1, #2, #4, ...

........................................................................
.............................. CYCLE    5 ..............................
........................................................................

 iter      E             dE          RMSdq      gap      omega  full diag
   1    -50.6481156 -0.506481E+02  0.116E-01    1.94       0.0  T
   2    -50.6481191 -0.347157E-05  0.677E-02    1.94       1.0  T
   3    -50.6481153  0.380455E-05  0.147E-02    1.94       1.4  T
   4    -50.6481204 -0.505389E-05  0.331E-03    1.94       6.3  T
   5    -50.6481204 -0.614670E-07  0.176E-03    1.94      11.8  T
   6    -50.6481204 -0.316032E-07  0.630E-04    1.94      33.1  T
   7    -50.6481204 -0.155836E-08  0.291E-04    1.94      71.7  T
     SCC iter.                  ...        0 min,  0.006 sec
     gradient                   ...        0 min,  0.002 sec
 * total energy  :   -50.0460251 Eh     change       -0.2079362E-03 Eh
   gradient norm :     0.0039109 Eh/α   predicted    -0.1602069E-03 ( -22.95%)
   displ. norm   :     0.1817570 α      lambda       -0.1413545E-03
   maximum displ.:     0.1247150 α      in ANC's #1, #2, #3, ...

........................................................................
.............................. CYCLE    6 ..............................
........................................................................

 iter      E             dE          RMSdq      gap      omega  full diag
   1    -50.6472386 -0.506472E+02  0.933E-02    1.94       0.0  T
   2    -50.6472402 -0.161145E-05  0.543E-02    1.94       1.0  T
   3    -50.6472385  0.169365E-05  0.101E-02    1.94       2.1  T
   4    -50.6472408 -0.232498E-05  0.225E-03    1.94       9.3  T
   5    -50.6472409 -0.186196E-07  0.107E-03    1.94      19.5  T
   6    -50.6472409 -0.901568E-08  0.391E-04    1.94      53.4  T
   7    -50.6472409 -0.145978E-08  0.181E-04    1.94     115.0  T
     SCC iter.                  ...        0 min,  0.006 sec
     gradient                   ...        0 min,  0.002 sec
 * total energy  :   -50.0461396 Eh     change       -0.1144619E-03 Eh
   gradient norm :     0.0037927 Eh/α   predicted    -0.7302259E-04 ( -36.20%)
   displ. norm   :     0.2111554 α      lambda       -0.1622144E-03
   maximum displ.:     0.1421200 α      in ANC's #1, #2, #3, ...

........................................................................
.............................. CYCLE    7 ..............................
........................................................................

 iter      E             dE          RMSdq      gap      omega  full diag
   1    -50.6471829 -0.506472E+02  0.108E-01    1.94       0.0  T
   2    -50.6471845 -0.161921E-05  0.627E-02    1.94       1.0  T
   3    -50.6471832  0.132084E-05  0.954E-03    1.94       2.2  T
   4    -50.6471851 -0.197629E-05  0.242E-03    1.94       8.6  T
   5    -50.6471851 -0.174526E-07  0.969E-04    1.94      21.5  T
   6    -50.6471852 -0.497340E-08  0.357E-04    1.94      58.4  T
     SCC iter.                  ...        0 min,  0.005 sec
     gradient                   ...        0 min,  0.002 sec
 * total energy  :   -50.0462802 Eh     change       -0.1405583E-03 Eh
   gradient norm :     0.0052954 Eh/α   predicted    -0.8472483E-04 ( -39.72%)
   displ. norm   :     0.3114218 α      lambda       -0.2350260E-03
   maximum displ.:     0.2110983 α      in ANC's #1, #2, #3, ...

........................................................................
.............................. CYCLE    8 ..............................
........................................................................

 iter      E             dE          RMSdq      gap      omega  full diag
   1    -50.6473442 -0.506473E+02  0.158E-01    1.93       0.0  T
   2    -50.6473472 -0.305796E-05  0.921E-02    1.93       1.0  T
   3    -50.6473457  0.148577E-05  0.117E-02    1.93       1.8  T
   4    -50.6473484 -0.271313E-05  0.348E-03    1.93       6.0  T
   5    -50.6473485 -0.314965E-07  0.122E-03    1.93      17.0  T
   6    -50.6473485 -0.103477E-07  0.450E-04    1.93      46.3  T
   7    -50.6473485 -0.161028E-08  0.234E-04    1.93      89.2  T
     SCC iter.                  ...        0 min,  0.009 sec
     gradient                   ...        0 min,  0.002 sec
 * total energy  :   -50.0464754 Eh     change       -0.1952387E-03 Eh
   gradient norm :     0.0067152 Eh/α   predicted    -0.1289131E-03 ( -33.97%)
   displ. norm   :     0.3638172 α      lambda       -0.2347304E-03
   maximum displ.:     0.2536106 α      in ANC's #1, #2, #3, ...

........................................................................
.............................. CYCLE    9 ..............................
........................................................................

 iter      E             dE          RMSdq      gap      omega  full diag
   1    -50.6471193 -0.506471E+02  0.187E-01    1.92       0.0  T
   2    -50.6471230 -0.370134E-05  0.109E-01    1.92       1.0  T
   3    -50.6471212  0.180161E-05  0.131E-02    1.92       1.6  T
   4    -50.6471246 -0.334202E-05  0.394E-03    1.92       5.3  T
   5    -50.6471246 -0.327685E-07  0.145E-03    1.92      14.4  T
   6    -50.6471246 -0.235889E-07  0.525E-04    1.92      39.7  T
   7    -50.6471246 -0.196839E-08  0.269E-04    1.92      77.4  T
     SCC iter.                  ...        0 min,  0.006 sec
     gradient                   ...        0 min,  0.002 sec
 * total energy  :   -50.0466602 Eh     change       -0.1847625E-03 Eh
   gradient norm :     0.0062640 Eh/α   predicted    -0.1329030E-03 ( -28.07%)
   displ. norm   :     0.3055001 α      lambda       -0.1721646E-03
   maximum displ.:     0.2279123 α      in ANC's #1, #2, #3, ...

........................................................................
.............................. CYCLE   10 ..............................
........................................................................

 iter      E             dE          RMSdq      gap      omega  full diag
   1    -50.6478437 -0.506478E+02  0.158E-01    1.92       0.0  T
   2    -50.6478459 -0.220989E-05  0.919E-02    1.92       1.0  T
   3    -50.6478447  0.123152E-05  0.103E-02    1.92       2.0  T
   4    -50.6478469 -0.221450E-05  0.316E-03    1.92       6.6  T
   5    -50.6478469 -0.177701E-07  0.126E-03    1.92      16.6  T
   6    -50.6478470 -0.241469E-07  0.390E-04    1.92      53.4  T
   7    -50.6478470 -0.397499E-09  0.204E-04    1.92     102.3  T
     SCC iter.                  ...        0 min,  0.006 sec
     gradient                   ...        0 min,  0.002 sec
 * total energy  :   -50.0467935 Eh     change       -0.1333548E-03 Eh
   gradient norm :     0.0039397 Eh/α   predicted    -0.9411671E-04 ( -29.42%)
   displ. norm   :     0.2547430 α      lambda       -0.1156115E-03
   maximum displ.:     0.1999277 α      in ANC's #1, #3, #2, ...

........................................................................
.............................. CYCLE   11 ..............................
........................................................................

 iter      E             dE          RMSdq      gap      omega  full diag
   1    -50.6486993 -0.506487E+02  0.131E-01    1.92       0.0  T
   2    -50.6487006 -0.129274E-05  0.766E-02    1.92       1.0  T
   3    -50.6486990  0.161991E-05  0.952E-03    1.92       2.2  T
   4    -50.6487013 -0.230941E-05  0.244E-03    1.92       8.6  T
   5    -50.6487013 -0.964991E-08  0.857E-04    1.92      24.3  T
   6    -50.6487013 -0.945054E-08  0.303E-04    1.92      68.7  T
     SCC iter.                  ...        0 min,  0.005 sec
     gradient                   ...        0 min,  0.002 sec
 * total energy  :   -50.0468846 Eh     change       -0.9105741E-04 Eh
   gradient norm :     0.0022043 Eh/α   predicted    -0.6156135E-04 ( -32.39%)
   displ. norm   :     0.2156818 α      lambda       -0.7979116E-04
   maximum displ.:     0.1771544 α      in ANC's #1, #3, #2, ...

........................................................................
.............................. CYCLE   12 ..............................
........................................................................

 iter      E             dE          RMSdq      gap      omega  full diag
   1    -50.6491954 -0.506492E+02  0.108E-01    1.91       0.0  T
   2    -50.6491962 -0.788698E-06  0.634E-02    1.91       1.0  T
   3    -50.6491952  0.102276E-05  0.727E-03    1.91       2.9  T
   4    -50.6491967 -0.146217E-05  0.188E-03    1.91      11.1  T
   5    -50.6491967 -0.515553E-08  0.650E-04    1.91      32.1  T
   6    -50.6491967 -0.516461E-08  0.235E-04    1.91      88.6  T
     SCC iter.                  ...        0 min,  0.005 sec
     gradient                   ...        0 min,  0.002 sec
 * total energy  :   -50.0469507 Eh     change       -0.6611125E-04 Eh
   gradient norm :     0.0023952 Eh/α   predicted    -0.4175429E-04 ( -36.84%)
   displ. norm   :     0.1766185 α      lambda       -0.6099254E-04
   maximum displ.:     0.1500424 α      in ANC's #1, #3, #5, ...

........................................................................
.............................. CYCLE   13 ..............................
........................................................................

 iter      E             dE          RMSdq      gap      omega  full diag
   1    -50.6495258 -0.506495E+02  0.867E-02    1.91       0.0  T
   2    -50.6495262 -0.441973E-06  0.508E-02    1.91       1.0  T
   3    -50.6495255  0.762900E-06  0.587E-03    1.91       3.6  T
   4    -50.6495265 -0.102476E-05  0.141E-03    1.91      14.8  T
   5    -50.6495265 -0.328848E-08  0.664E-04    1.91      31.4  T
   6    -50.6495265 -0.408715E-08  0.179E-04    1.91     116.4  T
     SCC iter.                  ...        0 min,  0.005 sec
     gradient                   ...        0 min,  0.002 sec
 * total energy  :   -50.0470033 Eh     change       -0.5263380E-04 Eh
   gradient norm :     0.0026074 Eh/α   predicted    -0.3145771E-04 ( -40.23%)
   displ. norm   :     0.1561863 α      lambda       -0.5215846E-04
   maximum displ.:     0.1364460 α      in ANC's #1, #3, #5, ...

........................................................................
.............................. CYCLE   14 ..............................
........................................................................

 iter      E             dE          RMSdq      gap      omega  full diag
   1    -50.6495644 -0.506496E+02  0.739E-02    1.91       0.0  T
   2    -50.6495648 -0.368764E-06  0.433E-02    1.91       1.0  T
   3    -50.6495644  0.427232E-06  0.461E-03    1.91       4.5  T
   4    -50.6495650 -0.614270E-06  0.122E-03    1.91      17.1  T
   5    -50.6495650 -0.437423E-08  0.655E-04    1.91      31.8  T
   6    -50.6495650 -0.391957E-08  0.203E-04    1.91     102.7  T
     SCC iter.                  ...        0 min,  0.005 sec
     gradient                   ...        0 min,  0.002 sec
 * total energy  :   -50.0470485 Eh     change       -0.4519734E-04 Eh
   gradient norm :     0.0020970 Eh/α   predicted    -0.2672010E-04 ( -40.88%)
   displ. norm   :     0.1312177 α      lambda       -0.4323215E-04
   maximum displ.:     0.1168439 α      in ANC's #1, #3, #5, ...

........................................................................
.............................. CYCLE   15 ..............................
........................................................................

 iter      E             dE          RMSdq      gap      omega  full diag
   1    -50.6495616 -0.506496E+02  0.621E-02    1.92       0.0  T
   2    -50.6495618 -0.229060E-06  0.365E-02    1.92       1.0  T
   3    -50.6495616  0.271890E-06  0.373E-03    1.92       5.6  T
   4    -50.6495619 -0.391362E-06  0.101E-03    1.92      20.6  T
   5    -50.6495620 -0.383618E-08  0.565E-04    1.92      36.9  T
   6    -50.6495620 -0.276984E-08  0.155E-04    1.92     134.8  T
     SCC iter.                  ...        0 min,  0.005 sec
     gradient                   ...        0 min,  0.002 sec
 * total energy  :   -50.0470859 Eh     change       -0.3733229E-04 Eh
   gradient norm :     0.0017522 Eh/α   predicted    -0.2198945E-04 ( -41.10%)
   displ. norm   :     0.1693286 α      lambda       -0.3620264E-04
   maximum displ.:     0.1519396 α      in ANC's #1, #2, #3, ...

........................................................................
.............................. CYCLE   16 ..............................
........................................................................

 iter      E             dE          RMSdq      gap      omega  full diag
   1    -50.6495104 -0.506495E+02  0.783E-02    1.92       0.0  T
   2    -50.6495109 -0.487638E-06  0.458E-02    1.91       1.0  T
   3    -50.6495107  0.185883E-06  0.416E-03    1.91       5.0  T
   4    -50.6495111 -0.400603E-06  0.145E-03    1.91      14.4  T
   5    -50.6495111 -0.576546E-08  0.643E-04    1.91      32.4  T
   6    -50.6495111 -0.464182E-08  0.248E-04    1.91      83.9  T
     SCC iter.                  ...        0 min,  0.007 sec
     gradient                   ...        0 min,  0.002 sec
 * total energy  :   -50.0471311 Eh     change       -0.4524165E-04 Eh
   gradient norm :     0.0017230 Eh/α   predicted    -0.1833366E-04 ( -59.48%)
   displ. norm   :     0.1391215 α      lambda       -0.2723591E-04
   maximum displ.:     0.1245370 α      in ANC's #1, #2, #4, ...

........................................................................
.............................. CYCLE   17 ..............................
........................................................................

 iter      E             dE          RMSdq      gap      omega  full diag
   1    -50.6493567 -0.506494E+02  0.658E-02    1.91       0.0  T
   2    -50.6493570 -0.372647E-06  0.385E-02    1.91       1.0  T
   3    -50.6493570 -0.267033E-08  0.306E-03    1.91       6.8  T
   4    -50.6493572 -0.157347E-06  0.135E-03    1.91      15.4  T
   5    -50.6493572 -0.795652E-08  0.423E-04    1.91      49.3  T
   6    -50.6493572 -0.181573E-08  0.205E-04    1.91     101.9  T
     SCC iter.                  ...        0 min,  0.005 sec
     gradient                   ...        0 min,  0.002 sec
 * total energy  :   -50.0471652 Eh     change       -0.3408723E-04 Eh
   gradient norm :     0.0015214 Eh/α   predicted    -0.1373766E-04 ( -59.70%)
   displ. norm   :     0.1369583 α      lambda       -0.2368050E-04
   maximum displ.:     0.1213874 α      in ANC's #1, #2, #4, ...

........................................................................
.............................. CYCLE   18 ..............................
........................................................................

 iter      E             dE          RMSdq      gap      omega  full diag
   1    -50.6492602 -0.506493E+02  0.654E-02    1.91       0.0  T
   2    -50.6492607 -0.512911E-06  0.382E-02    1.91       1.0  T
   3    -50.6492607  0.745457E-07  0.383E-03    1.91       5.4  T
   4    -50.6492609 -0.262836E-06  0.151E-03    1.91      13.8  T
   5    -50.6492609 -0.134952E-07  0.556E-04    1.91      37.5  T
   6    -50.6492609 -0.124371E-08  0.241E-04    1.91      86.5  T
     SCC iter.                  ...        0 min,  0.005 sec
     gradient                   ...        0 min,  0.002 sec
 * total energy  :   -50.0471925 Eh     change       -0.2734196E-04 Eh
   gradient norm :     0.0012816 Eh/α   predicted    -0.1194043E-04 ( -56.33%)
   displ. norm   :     0.1298205 α      lambda       -0.1639608E-04
   maximum displ.:     0.1149081 α      in ANC's #1, #2, #25, ...

........................................................................
.............................. CYCLE   19 ..............................
........................................................................

 iter      E             dE          RMSdq      gap      omega  full diag
   1    -50.6494333 -0.506494E+02  0.629E-02    1.91       0.0  T
   2    -50.6494339 -0.528547E-06  0.367E-02    1.91       1.0  T
   3    -50.6494339  0.165774E-07  0.377E-03    1.91       5.5  T
   4    -50.6494341 -0.209839E-06  0.152E-03    1.91      13.7  T
   5    -50.6494341 -0.942215E-08  0.515E-04    1.91      40.5  T
   6    -50.6494341 -0.221402E-08  0.230E-04    1.91      90.6  T
     SCC iter.                  ...        0 min,  0.005 sec
     gradient                   ...        0 min,  0.002 sec
 * total energy  :   -50.0472077 Eh     change       -0.1516229E-04 Eh
   gradient norm :     0.0012787 Eh/α   predicted    -0.8261636E-05 ( -45.51%)
   displ. norm   :     0.0786343 α      lambda       -0.8607033E-05
   maximum displ.:     0.0730724 α      in ANC's #1, #2, #4, ...

........................................................................
.............................. CYCLE   20 ..............................
........................................................................

 iter      E             dE          RMSdq      gap      omega  full diag
   1    -50.6490153 -0.506490E+02  0.396E-02    1.91       0.0  T
   2    -50.6490154 -0.152529E-06  0.232E-02    1.91       1.0  T
   3    -50.6490154  0.512240E-07  0.234E-03    1.91       8.9  T
   4    -50.6490155 -0.115798E-06  0.796E-04    1.91      26.2  T
   5    -50.6490155 -0.171666E-08  0.287E-04    1.91      72.6  T
     SCC iter.                  ...        0 min,  0.004 sec
     gradient                   ...        0 min,  0.004 sec
 * total energy  :   -50.0472143 Eh     change       -0.6615118E-05 Eh
   gradient norm :     0.0011825 Eh/α   predicted    -0.4318000E-05 ( -34.73%)
   displ. norm   :     0.0518657 α      lambda       -0.4683634E-05
   maximum displ.:     0.0485661 α      in ANC's #1, #4, #32, ...
 * RMSD in coord.:     0.6676847 α      energy gain  -0.6896364E-02 Eh

generating ANC from exact Hessian ...
Using Lindh-Hessian (1995)
 Shifting diagonal of input Hessian by    8.8802972711714365E-003
 Lowest  eigenvalues of input Hessian
    0.000000    0.000000    0.000000    0.000000    0.000000    0.000000
    0.010000    0.010876    0.011531    0.014778    0.016362    0.021806
    0.024755    0.028218    0.031451    0.035704    0.039527    0.039942
 Highest eigenvalues
    1.975027    2.091116    2.131592    2.179557    2.241858    2.432304


........................................................................
.............................. CYCLE   21 ..............................
........................................................................

 iter      E             dE          RMSdq      gap      omega  full diag
   1    -50.6491476 -0.506491E+02  0.257E-02    1.91       0.0  T
   2    -50.6491478 -0.122581E-06  0.151E-02    1.91       1.4  T
   3    -50.6491476  0.184191E-06  0.332E-03    1.91       6.3  T
   4    -50.6491478 -0.226436E-06  0.527E-04    1.91      39.6  T
   5    -50.6491478 -0.212331E-08  0.245E-04    1.91      85.0  T
     SCC iter.                  ...        0 min,  0.004 sec
     gradient                   ...        0 min,  0.002 sec
 * total energy  :   -50.0472176 Eh     change       -0.3258760E-05 Eh
   gradient norm :     0.0013470 Eh/α   predicted     0.0000000E+00 (-100.00%)
   displ. norm   :     0.0187157 α      lambda       -0.3281392E-05
   maximum displ.:     0.0128920 α      in ANC's #2, #1, #4, ...

........................................................................
.............................. CYCLE   22 ..............................
........................................................................

 iter      E             dE          RMSdq      gap      omega  full diag
   1    -50.6494774 -0.506495E+02  0.101E-02    1.91       0.0  T
   2    -50.6494775 -0.723573E-07  0.603E-03    1.91       3.5  T
   3    -50.6494775  0.591886E-07  0.213E-03    1.91       9.8  T
   4    -50.6494775 -0.778425E-07  0.390E-04    1.91      53.5  T
   5    -50.6494775 -0.159017E-08  0.157E-04    1.91     132.5  T
     SCC iter.                  ...        0 min,  0.005 sec
     gradient                   ...        0 min,  0.002 sec
 * total energy  :   -50.0472210 Eh     change       -0.3403852E-05 Eh
   gradient norm :     0.0004679 Eh/α   predicted    -0.2101982E-05 ( -38.25%)
   displ. norm   :     0.0215742 α      lambda       -0.1939094E-05
   maximum displ.:     0.0157998 α      in ANC's #2, #1, #3, ...

   *** GEOMETRY OPTIMIZATION CONVERGED AFTER 22 ITERATIONS ***

------------------------------------------------------------------------
 total energy gain   :        -0.0069030 Eh       -4.3317 kcal/mol
 total RMSD          :         0.6701458 a0        0.3546 Å
 total power (kW/mol):        -0.8238133 (step)  -88.1240 (real)
------------------------------------------------------------------------

 ANCopt (total)                0 d,  0 h,  0 min,  0.206 sec
 optimizer setup                ...        0 min,  0.000 sec (  0.036%)
 model hessian                  ...        0 min,  0.006 sec (  2.830%)
 ANC generation                 ...        0 min,  0.001 sec (  0.369%)
 coordinate transformation      ...        0 min,  0.000 sec (  0.079%)
 single point calculation       ...        0 min,  0.193 sec ( 93.775%)
 optimization log               ...        0 min,  0.003 sec (  1.611%)
 hessian update                 ...        0 min,  0.000 sec (  0.159%)
 rational function              ...        0 min,  0.001 sec (  0.729%)

================
 final structure:
================
23
 xtb: 6.7.1 (edcfbbe)
N            1.16374093595285        0.37593356496287        0.50086894870076
C            1.08070301923868       -0.90682088278120        0.14609418435401
C           -0.16273599283567       -1.48394662544046       -0.13100511695071
C           -1.27239849783597       -0.65140360487846       -0.03896608615244
N           -1.16760437160068        0.63059240147335        0.29586571039787
C            0.04622581840363        1.07201607361296        0.55526213998936
C           -2.65628334573665       -1.15241499251695       -0.31819633446885
O           -3.62922429296452       -0.46397399880601       -0.43817576691556
O           -2.69108207602427       -2.48953192509953       -0.42866395534565
C            2.34282178828417       -1.65382039232516        0.08620297844674
C            3.44884608432878       -1.17008981148048        0.78558916465714
C            4.65336478136858       -1.84360433122241        0.75691074383172
C            4.76810843740861       -3.00807075734452        0.01634053538238
C            3.67414569880937       -3.49080033035231       -0.69384585920635
C            2.46553062021426       -2.82375636334951       -0.66021558645921
F            3.78445946133033       -4.61229149773732       -1.42347907492916
F            5.93659296239841       -3.66332550186519       -0.01700083969244
H           -0.27758951381761       -2.52327594882463       -0.38538198286556
H            0.13573818202054        2.11237883127499        0.83923923625047
H           -3.59938287241900       -2.78292361347472       -0.60502858810480
H            3.34200034768372       -0.25772694082937        1.34953185478497
H            5.51307536508592       -1.48183322693742        1.29795753747505
H            1.64690746070627       -3.21972012605786       -1.23926384318007

 Bond Distances (Angstroems)
 ---------------------------
N1-C2=1.3335         N1-C6=1.3177         C2-N1=1.3335         C2-C3=1.3986         C2-C10=1.4678        C3-C2=1.3986         
C3-C4=1.3903         C3-H18=1.0762        C4-C3=1.3903         C4-N5=1.3291         C4-C7=1.4980         N5-C4=1.3291         
N5-C6=1.3174         C6-N1=1.3177         C6-N5=1.3174         C6-H19=1.0821        C7-C4=1.4980         C7-O8=1.1979         
C7-O9=1.3421         O8-C7=1.1979         O9-C7=1.3421         O9-H20=0.9707        C10-C2=1.4678        C10-C11=1.3951       
C10-C15=1.3932       C11-C10=1.3951       C11-C12=1.3803       C11-H21=1.0779       C12-C11=1.3803       C12-C13=1.3848       
C12-H22=1.0783       C13-C12=1.3848       C13-C14=1.3907       C13-F17=1.3401       C14-C13=1.3907       C14-C15=1.3809       
C14-F16=1.3425       C15-C10=1.3932       C15-C14=1.3809       C15-H23=1.0781       F16-C14=1.3425       F17-C13=1.3401       
H18-C3=1.0762        H19-C6=1.0821        H20-O9=0.9707        H21-C11=1.0779       H22-C12=1.0783       H23-C15=1.0781       
 C  H  Rav=1.0785 sigma=0.0020  Rmin=1.0762  Rmax=1.0821     5
 C  C  Rav=1.4080 sigma=0.0385  Rmin=1.3803  Rmax=1.4980    10
 N  C  Rav=1.3244 sigma=0.0071  Rmin=1.3174  Rmax=1.3335     4
 O  H  Rav=0.9707 sigma=0.0000  Rmin=0.9707  Rmax=0.9707     1
 O  C  Rav=1.2700 sigma=0.0721  Rmin=1.1979  Rmax=1.3421     2
 F  C  Rav=1.3413 sigma=0.0012  Rmin=1.3401  Rmax=1.3425     2

 selected bond angles (degree)
 --------------------
C6-N1-C2=117.80                C3-C2-N1=120.33                C10-C2-N1=116.54               C10-C2-C3=123.12               
C4-C3-C2=116.70                H18-C3-C2=122.70               H18-C3-C4=120.58               N5-C4-C3=122.10                
C7-C4-C3=121.65                C7-C4-N5=116.26                C6-N5-C4=116.45                N5-C6-N1=126.60                
H19-C6-N1=116.65               H19-C6-N5=116.75               O8-C7-C4=125.22                O9-C7-C4=111.87                
O9-C7-O8=122.91                H20-O9-C7=109.90               C11-C10-C2=119.00              C15-C10-C2=121.67              
C15-C10-C11=119.34             

 selected dihedral angles (degree)
 ---------------------------------
C3-C2-N1-C6=358.82            C10-C2-N1-C6=179.62           C4-C3-C2-N1=  1.10            C4-C3-C2-C10=180.25           
H18-C3-C2-N1=182.29           H18-C3-C2-C10=  1.44          N5-C4-C3-C2=359.96            N5-C4-C3-H18=178.79           
C7-C4-C3-C2=179.72            C7-C4-C3-H18=358.56           C6-N5-C4-C3=359.12            C6-N5-C4-C7=179.35            
N5-C6-N1-C2=  0.18            H19-C6-N1-C2=180.36           N1-C6-N5-C4=  0.85            H19-C6-N5-C4=180.67           
O8-C7-C4-C3=190.78            O8-C7-C4-N5= 10.56            O9-C7-C4-C3= 10.50            O9-C7-C4-N5=190.28            
H20-O9-C7-C4=179.74           H20-O9-C7-O8=359.47           C11-C10-C2-N1= 20.51          C11-C10-C2-C3=201.33          
C15-C10-C2-N1=201.12          C15-C10-C2-C3= 21.94          
           -------------------------------------------------
          |                Final Singlepoint                |
           -------------------------------------------------

          ...................................................
          :                      SETUP                      :
          :.................................................:
          :  # basis functions                  74          :
          :  # atomic orbitals                  74          :
          :  # shells                           40          :
          :  # electrons                        86          :
          :  max. iterations                   250          :
          :  Hamiltonian                  GFN2-xTB          :
          :  restarted?                      false          :
          :  GBSA solvation                  false          :
          :  PC potential                    false          :
          :  electronic temp.          300.0000000     K    :
          :  accuracy                    1.0000000          :
          :  -> integral cutoff          0.2500000E+02      :
          :  -> integral neglect         0.1000000E-07      :
          :  -> SCF convergence          0.1000000E-05 Eh   :
          :  -> wf. convergence          0.1000000E-03 e    :
          :  Broyden damping             0.4000000          :
          :  net charge                          0          :
          :  unpaired electrons                  0          :
          ...................................................

 iter      E             dE          RMSdq      gap      omega  full diag
   1    -50.6494775 -0.506495E+02  0.829E-05    1.91       0.0  T
   2    -50.6494775 -0.219842E-10  0.483E-05    1.91     431.5  T
   3    -50.6494775 -0.892442E-11  0.316E-05    1.91     660.7  T

   *** convergence criteria satisfied after 3 iterations ***

         #    Occupation            Energy/Eh            Energy/eV
      -------------------------------------------------------------
         1        2.0000           -0.8430575             -22.9408
       ...           ...                  ...                  ...
        37        2.0000           -0.4671097             -12.7107
        38        2.0000           -0.4647301             -12.6459
        39        2.0000           -0.4461812             -12.1412
        40        2.0000           -0.4455767             -12.1248
        41        2.0000           -0.4312474             -11.7348
        42        2.0000           -0.4238597             -11.5338
        43        2.0000           -0.3903170             -10.6211 (HOMO)
        44                         -0.3201705              -8.7123 (LUMO)
        45                         -0.2966658              -8.0727
        46                         -0.2671709              -7.2701
        47                         -0.2516433              -6.8476
        48                         -0.2197148              -5.9787
       ...                                ...                  ...
        74                          0.6806875              18.5224
      -------------------------------------------------------------
                  HL-Gap            0.0701465 Eh            1.9088 eV
             Fermi-level           -0.3552437 Eh           -9.6667 eV

 SCC (total)                   0 d,  0 h,  0 min,  0.006 sec
 SCC setup                      ...        0 min,  0.000 sec (  5.012%)
 Dispersion                     ...        0 min,  0.000 sec (  1.419%)
 classical contributions        ...        0 min,  0.000 sec (  0.237%)
 integral evaluation            ...        0 min,  0.001 sec ( 14.559%)
 iterations                     ...        0 min,  0.003 sec ( 40.231%)
 molecular gradient             ...        0 min,  0.002 sec ( 37.056%)
 printout                       ...        0 min,  0.000 sec (  1.254%)

         :::::::::::::::::::::::::::::::::::::::::::::::::::::
         ::                     SUMMARY                     ::
         :::::::::::::::::::::::::::::::::::::::::::::::::::::
         :: total energy             -50.047220964379 Eh    ::
         :: gradient norm              0.000468370852 Eh/a0 ::
         :: HOMO-LUMO gap              1.908783636853 eV    ::
         ::.................................................::
         :: SCC energy               -50.649563314114 Eh    ::
         :: -> isotropic ES            0.081194310176 Eh    ::
         :: -> anisotropic ES          0.003495984026 Eh    ::
         :: -> anisotropic XC          0.013156468844 Eh    ::
         :: -> dispersion             -0.023389964139 Eh    ::
         :: repulsion energy           0.602342349735 Eh    ::
         :: add. restraining           0.000000000000 Eh    ::
         :: total charge              -0.000000000000 e     ::
         :::::::::::::::::::::::::::::::::::::::::::::::::::::

           -------------------------------------------------
          |                Property Printout                |
           -------------------------------------------------

    * Orbital Energies and Occupations

         #    Occupation            Energy/Eh            Energy/eV
      -------------------------------------------------------------
         1        2.0000           -0.8430575             -22.9408
       ...           ...                  ...                  ...
        31        2.0000           -0.5125434             -13.9470
        32        2.0000           -0.5067304             -13.7888
        33        2.0000           -0.4975087             -13.5379
        34        2.0000           -0.4969469             -13.5226
        35        2.0000           -0.4838523             -13.1663
        36        2.0000           -0.4819162             -13.1136
        37        2.0000           -0.4671097             -12.7107
        38        2.0000           -0.4647301             -12.6459
        39        2.0000           -0.4461812             -12.1412
        40        2.0000           -0.4455767             -12.1248
        41        2.0000           -0.4312474             -11.7348
        42        2.0000           -0.4238597             -11.5338
        43        2.0000           -0.3903170             -10.6211 (HOMO)
        44                         -0.3201705              -8.7123 (LUMO)
        45                         -0.2966658              -8.0727
        46                         -0.2671709              -7.2701
        47                         -0.2516433              -6.8476
        48                         -0.2197148              -5.9787
        49                         -0.1489082              -4.0520
        50                         -0.1139601              -3.1010
        51                          0.0156316               0.4254
        52                          0.0256238               0.6973
        53                          0.0391003               1.0640
        54                          0.0766581               2.0860
       ...                                ...                  ...
        74                          0.6806875              18.5224
      -------------------------------------------------------------
                  HL-Gap            0.0701465 Eh            1.9088 eV
             Fermi-level           -0.3552437 Eh           -9.6667 eV

     #   Z          covCN         q      C6AA      α(0)
     1   7 N        1.843    -0.230    26.887     7.685
     2   6 C        2.977     0.117    25.427     8.271
     3   6 C        2.910    -0.047    29.178     8.857
     4   6 C        2.983     0.088    26.029     8.369
     5   7 N        1.839    -0.211    26.424     7.618
     6   6 C        2.911     0.153    24.685     8.147
     7   6 C        2.695     0.354    20.992     7.499
     8   8 O        0.856    -0.364    20.974     6.140
     9   8 O        1.660    -0.377    20.407     6.098
    10   6 C        2.980     0.006    27.886     8.662
    11   6 C        2.927    -0.029    28.717     8.788
    12   6 C        2.918    -0.046    29.155     8.854
    13   6 C        2.780     0.161    24.517     8.110
    14   6 C        2.778     0.158    24.568     8.118
    15   6 C        2.923    -0.052    29.291     8.875
    16   9 F        0.787    -0.197    11.207     3.954
    17   9 F        0.787    -0.192    11.154     3.945
    18   1 H        0.926     0.068     2.102     2.267
    19   1 H        0.925     0.063     2.159     2.298
    20   1 H        0.804     0.337     0.620     1.237
    21   1 H        0.926     0.085     1.926     2.170
    22   1 H        0.926     0.080     1.980     2.200
    23   1 H        0.926     0.076     2.022     2.223

 Mol. C6AA /au·bohr⁶  :       8126.854417
 Mol. C8AA /au·bohr⁸  :     199538.099421
 Mol. α(0) /au        :        140.388268


Wiberg/Mayer (AO) data.
largest (>0.10) Wiberg bond orders for each atom

 ---------------------------------------------------------------------------
     #   Z sym  total        # sym  WBO       # sym  WBO       # sym  WBO
 ---------------------------------------------------------------------------
     1   7 N    3.067 --     6 C    1.437     2 C    1.382
     2   6 C    3.976 --     1 N    1.382     3 C    1.364    10 C    1.058
     3   6 C    3.986 --     4 C    1.412     2 C    1.364    18 H    0.961
                             6 C    0.106
     4   6 C    3.979 --     3 C    1.412     5 N    1.392     7 C    0.966
     5   7 N    3.064 --     6 C    1.432     4 C    1.392
     6   6 C    3.962 --     1 N    1.437     5 N    1.432    19 H    0.954
                             3 C    0.106
     7   6 C    3.922 --     8 O    1.786     9 O    1.123     4 C    0.966
     8   8 O    2.078 --     7 C    1.786     9 O    0.182
     9   8 O    2.198 --     7 C    1.123    20 H    0.862     8 O    0.182
    10   6 C    3.989 --    15 C    1.381    11 C    1.376     2 C    1.058
    11   6 C    3.985 --    12 C    1.456    10 C    1.376    21 H    0.962
    12   6 C    3.986 --    11 C    1.456    13 C    1.388    22 H    0.963
                            15 C    0.102
    13   6 C    3.889 --    12 C    1.388    14 C    1.335    17 F    0.984
    14   6 C    3.896 --    15 C    1.412    13 C    1.335    16 F    0.979
    15   6 C    3.986 --    14 C    1.412    10 C    1.381    23 H    0.960
                            12 C    0.102
    16   9 F    1.118 --    14 C    0.979
    17   9 F    1.122 --    13 C    0.984
    18   1 H    0.995 --     3 C    0.961
    19   1 H    0.995 --     6 C    0.954
    20   1 H    0.886 --     9 O    0.862
    21   1 H    0.993 --    11 C    0.962
    22   1 H    0.993 --    12 C    0.963
    23   1 H    0.994 --    15 C    0.960
 ---------------------------------------------------------------------------

Topologies differ in total number of bonds
Writing topology from bond orders to xtbtopo.mol

molecular dipole:
                 x           y           z       tot (Debye)
 q only:        0.112       0.048       0.448
   full:       -0.029      -0.379       0.334       1.286
molecular quadrupole (traceless):
                xx          xy          yy          xz          yz          zz
 q only:       -7.461      23.626      -0.595       7.152      -2.322       8.056
  q+dip:       -8.176      28.006      -0.087       8.566      -1.094       8.263
   full:      -10.798      28.325      -1.108       7.011      -3.432      11.906

           -------------------------------------------------
          |                Geometry Summary                 |
           -------------------------------------------------

      molecular mass/u    :      236.1747620
   center of mass at/Å    :        1.3175880      -1.7111645      -0.0963423
  moments of inertia/u·Å² :        0.4499871E+03   0.2322803E+04   0.2737595E+04
rotational constants/cm⁻¹ :        0.3746248E-01   0.7257454E-02   0.6157825E-02

 * 21 selected distances

     #   Z          #   Z                                           value/Å
     1   7 N        2   6 C                                       1.3334991
     2   6 C        3   6 C                                       1.3985704 (max)
     3   6 C        4   6 C                                       1.3903058
     4   6 C        5   7 N                                       1.3291382
     1   7 N        6   6 C                                       1.3176987
     5   7 N        6   6 C                                       1.3173934
     7   6 C        8   8 O                                       1.1978983
     7   6 C        9   8 O                                       1.3421237
    10   6 C       11   6 C                                       1.3951439
    11   6 C       12   6 C                                       1.3803296
    12   6 C       13   6 C                                       1.3847717
    13   6 C       14   6 C                                       1.3907363
    10   6 C       15   6 C                                       1.3931793
    14   6 C       15   6 C                                       1.3808799
    13   6 C       17   9 F                                       1.3400846
     3   6 C       18   1 H                                       1.0761527
     6   6 C       19   1 H                                       1.0821323
     9   8 O       20   1 H                                       0.9706666 (min)
    11   6 C       21   1 H                                       1.0778931
    12   6 C       22   1 H                                       1.0782915
    15   6 C       23   1 H                                       1.0780669

 * 6 distinct bonds (by element types)

   Z      Z             #   av. dist./Å        max./Å        min./Å
   1 H    6 C           5     1.0785073     1.0821323     1.0761527
   6 C    6 C           8     1.3892396     1.3985704     1.3803296
   6 C    7 N           4     1.3244323     1.3334991     1.3173934
   1 H    8 O           1     0.9706666     0.9706666     0.9706666
   6 C    8 O           2     1.2700110     1.3421237     1.1978983
   6 C    9 F           1     1.3400846     1.3400846     1.3400846


optimized geometry written to: xtbopt.xyz


           -------------------------------------------------
          | TOTAL ENERGY              -50.047220964379 Eh   |
          | GRADIENT NORM               0.000468370852 Eh/α |
          | HOMO-LUMO GAP               1.908783636853 eV   |
           -------------------------------------------------

------------------------------------------------------------------------
 * finished run on 2024/12/17 at 14:08:00.072     
------------------------------------------------------------------------
 total:
 * wall-time:     0 d,  0 h,  0 min,  0.247 sec
 *  cpu-time:     0 d,  0 h,  0 min,  1.939 sec
 * ratio c/w:     7.850 speedup
 SCF:
 * wall-time:     0 d,  0 h,  0 min,  0.016 sec
 *  cpu-time:     0 d,  0 h,  0 min,  0.130 sec
 * ratio c/w:     7.937 speedup
 ANC optimizer:
 * wall-time:     0 d,  0 h,  0 min,  0.213 sec
 *  cpu-time:     0 d,  0 h,  0 min,  1.687 sec
 * ratio c/w:     7.924 speedup

