23
 energy: -50.047220964379 gnorm: 0.000468370852 xtb: 6.7.1 (edcfbbe)
N            1.16374093595285        0.37593356496287        0.50086894870076
C            1.08070301923868       -0.90682088278120        0.14609418435401
C           -0.16273599283567       -1.48394662544046       -0.13100511695071
C           -1.27239849783597       -0.65140360487846       -0.03896608615244
N           -1.16760437160068        0.63059240147335        0.29586571039787
C            0.04622581840363        1.07201607361296        0.55526213998936
C           -2.65628334573665       -1.15241499251695       -0.31819633446885
O           -3.62922429296452       -0.46397399880601       -0.43817576691556
O           -2.69108207602427       -2.48953192509953       -0.42866395534565
C            2.34282178828417       -1.65382039232516        0.08620297844674
C            3.44884608432878       -1.17008981148048        0.78558916465714
C            4.65336478136858       -1.84360433122241        0.75691074383172
C            4.76810843740861       -3.00807075734452        0.01634053538238
C            3.67414569880937       -3.49080033035231       -0.69384585920635
C            2.46553062021426       -2.82375636334951       -0.66021558645921
F            3.78445946133033       -4.61229149773732       -1.42347907492916
F            5.93659296239841       -3.66332550186519       -0.01700083969244
H           -0.27758951381761       -2.52327594882463       -0.38538198286556
H            0.13573818202054        2.11237883127499        0.83923923625047
H           -3.59938287241900       -2.78292361347472       -0.60502858810480
H            3.34200034768372       -0.25772694082937        1.34953185478497
H            5.51307536508592       -1.48183322693742        1.29795753747505
H            1.64690746070627       -3.21972012605786       -1.23926384318007
