      -----------------------------------------------------------      
     |                   =====================                   |     
     |                           x T B                           |     
     |                   =====================                   |     
     |                         S. Grimme                         |     
     |          Mulliken Center for Theoretical Chemistry        |     
     |                    University of Bonn                     |     
      -----------------------------------------------------------      

   * xtb version 6.7.1 (edcfbbe) compiled by 'conda@3ef47c1a292c' on 2024-11-25

   xtb is free software: you can redistribute it and/or modify it under
   the terms of the GNU Lesser General Public License as published by
   the Free Software Foundation, either version 3 of the License, or
   (at your option) any later version.
   
   xtb is distributed in the hope that it will be useful,
   but WITHOUT ANY WARRANTY; without even the implied warranty of
   MERCHANTABILITY or FITNESS FOR A PARTICULAR PURPOSE.  See the
   GNU Lesser General Public License for more details.
   
   Cite this work as:
   * C. Bannwarth, E. Caldeweyher, S. Ehlert, A. Hansen, P. Pracht,
     J. Seibert, S. Spicher, S. Grimme, WIREs Comput. Mol. Sci., 2020, 11,
     e01493. DOI: 10.1002/wcms.1493
   
   for GFN2-xTB:
   * C. Bannwarth, S. Ehlert and S. Grimme., J. Chem. Theory Comput., 2019,
     15, 1652-1671. DOI: 10.1021/acs.jctc.8b01176
   for GFN1-xTB:
   * S. Grimme, C. Bannwarth, P. Shushkov, J. Chem. Theory Comput., 2017,
     13, 1989-2009. DOI: 10.1021/acs.jctc.7b00118
   for GFN0-xTB:
   * P. Pracht, E. Caldeweyher, S. Ehlert, S. Grimme, ChemRxiv, 2019, preprint.
     DOI: 10.26434/chemrxiv.8326202.v1
   for GFN-FF:
   * S. Spicher and S. Grimme, Angew. Chem. Int. Ed., 2020, 59, 15665-15673.
     DOI: 10.1002/anie.202004239
   
   for ALPB and GBSA implicit solvation:
   * S. Ehlert, M. Stahn, S. Spicher, S. Grimme, J. Chem. Theory Comput.,
     2021, 17, 4250-4261. DOI: 10.1021/acs.jctc.1c00471
   
   for ddCOSMO and CPCM-X implicit solvation:
   * M. Stahn, S. Ehlert, S. Grimme, J. Phys. Chem. A,
     2023, XX, XXXX-XXXX. DOI: 10.1021/acs.jpca.3c04382
   
   for DFT-D4:
   * E. Caldeweyher, C. Bannwarth and S. Grimme, J. Chem. Phys., 2017,
     147, 034112. DOI: 10.1063/1.4993215
   * E. Caldeweyher, S. Ehlert, A. Hansen, H. Neugebauer, S. Spicher,
     C. Bannwarth and S. Grimme, J. Chem. Phys., 2019, 150, 154122.
     DOI: 10.1063/1.5090222
   * E. Caldeweyher, J.-M. Mewes, S. Ehlert and S. Grimme, Phys. Chem. Chem. Phys.
     2020, 22, 8499-8512. DOI: 10.1039/D0CP00502A
   
   for sTDA-xTB:
   * S. Grimme and C. Bannwarth, J. Chem. Phys., 2016, 145, 054103.
     DOI: 10.1063/1.4959605
   
   in the mass-spec context:
   * V. Asgeirsson, C. Bauer and S. Grimme, Chem. Sci., 2017, 8, 4879.
     DOI: 10.1039/c7sc00601b
   * J. Koopman and S. Grimme, ACS Omega 2019, 4, 12, 15120-15133.
     DOI: 10.1021/acsomega.9b02011
   
   for metadynamics refer to:
   * S. Grimme, J. Chem. Theory Comput., 2019, 155, 2847-2862
     DOI: 10.1021/acs.jctc.9b00143
   
   for SPH calculations refer to:
   * S. Spicher and S. Grimme, J. Chem. Theory Comput., 2021, 17, 1701-1714
     DOI: 10.1021/acs.jctc.0c01306
   
   for ONIOM refer to:
   * C. Plett, A. Katbashev, S. Ehlert, S. Grimme, M. Bursch,
     Phys. Chem. Chem. Phys., 2023, 25, 17860-17868. DOI: 10.1039/D3CP02178E
   
   for DIPRO refer to:
   * J. Kohn, N. Gildemeister, S. Grimme, D. Fazzi, A. Hansen,
     J. Chem. Phys., 2023, just accepted.
   
   for PTB refer to:
   * S. Grimme, M. Mueller, A. Hansen, J. Chem. Phys., 2023, 158, 124111.
     DOI: 10.1063/5.0137838
   
   with help from (in alphabetical order)
   P. Atkinson, C. Bannwarth, F. Bohle, G. Brandenburg, E. Caldeweyher
   M. Checinski, S. Dohm, S. Ehlert, S. Ehrlich, I. Gerasimov, C. Hölzer
   A. Katbashev, J. Kohn, J. Koopman, C. Lavigne, S. Lehtola, F. März, M. Müller,
   F. Musil, H. Neugebauer, J. Pisarek, C. Plett, P. Pracht, F. Pultar,
   J. Seibert, P. Shushkov, S. Spicher, M. Stahn, M. Steiner, T. Strunk,
   J. Stückrath, T. Rose, and J. Unsleber
   
 * started run on 2024/12/17 at 14:08:28.780     
   ID    Z sym.   atoms
    1    7 N      1, 5
    2    6 C      2-4, 6, 7, 10-15
    3    8 O      8, 9
    4    9 F      16
    5   17 Cl     17
    6    1 H      18-23

           -------------------------------------------------
          |                Calculation Setup                |
           -------------------------------------------------

          program call               : xtb K003.xyz --opt --namespace K003
          calculation namespace      : K003
          coordinate file            : K003.xyz
          omp threads                :                     8


           -------------------------------------------------
          |                 G F N 2 - x T B                 |
           -------------------------------------------------

        Reference                      10.1021/acs.jctc.8b01176
      * Hamiltonian:
        H0-scaling (s, p, d)           1.850000    2.230000    2.230000
        zeta-weighting                 0.500000
      * Dispersion:
        s8                             2.700000
        a1                             0.520000
        a2                             5.000000
        s9                             5.000000
      * Repulsion:
        kExp                           1.500000    1.000000
        rExp                           1.000000
      * Coulomb:
        alpha                          2.000000
        third order                    shell-resolved
        anisotropic                    true
        a3                             3.000000
        a5                             4.000000
        cn-shift                       1.200000
        cn-exp                         4.000000
        max-rad                        5.000000


          ...................................................
          :                      SETUP                      :
          :.................................................:
          :  # basis functions                  80          :
          :  # atomic orbitals                  79          :
          :  # shells                           41          :
          :  # electrons                        86          :
          :  max. iterations                   250          :
          :  Hamiltonian                  GFN2-xTB          :
          :  restarted?                      false          :
          :  GBSA solvation                  false          :
          :  PC potential                    false          :
          :  electronic temp.          300.0000000     K    :
          :  accuracy                    1.0000000          :
          :  -> integral cutoff          0.2500000E+02      :
          :  -> integral neglect         0.1000000E-07      :
          :  -> SCF convergence          0.1000000E-05 Eh   :
          :  -> wf. convergence          0.1000000E-03 e    :
          :  Broyden damping             0.4000000          :
          :  net charge                          0          :
          :  unpaired electrons                  0          :
          ...................................................

 iter      E             dE          RMSdq      gap      omega  full diag
   1    -50.3618904 -0.503619E+02  0.519E+00    2.26       0.0  T
   2    -50.4133910 -0.515006E-01  0.312E+00    2.22       1.0  T
   3    -50.4102479  0.314306E-02  0.149E+00    1.98       1.0  T
   4    -50.4243335 -0.140856E-01  0.328E-01    1.89       1.0  T
   5    -50.4264622 -0.212872E-02  0.125E-01    1.87       1.0  T
   6    -50.4266522 -0.190013E-03  0.613E-02    1.86       1.0  T
   7    -50.4266674 -0.151453E-04  0.414E-02    1.87       1.0  T
   8    -50.4266799 -0.125823E-04  0.299E-02    1.87       1.0  T
   9    -50.4266866 -0.670144E-05  0.204E-02    1.87       1.0  T
  10    -50.4266903 -0.368968E-05  0.117E-02    1.87       1.8  T
  11    -50.4266919 -0.160087E-05  0.448E-03    1.87       4.7  T
  12    -50.4266921 -0.124576E-06  0.165E-03    1.87      12.6  T
  13    -50.4266921 -0.182578E-07  0.800E-04    1.87      26.1  T
  14    -50.4266921 -0.477738E-08  0.381E-04    1.87      54.7  T

   *** convergence criteria satisfied after 14 iterations ***

         #    Occupation            Energy/Eh            Energy/eV
      -------------------------------------------------------------
         1        2.0000           -1.0714179             -29.1548
       ...           ...                  ...                  ...
        37        2.0000           -0.4612860             -12.5522
        38        2.0000           -0.4456239             -12.1260
        39        2.0000           -0.4393347             -11.9549
        40        2.0000           -0.4350871             -11.8393
        41        2.0000           -0.4280216             -11.6471
        42        2.0000           -0.4174455             -11.3593
        43        2.0000           -0.3928270             -10.6894 (HOMO)
        44                         -0.3240639              -8.8182 (LUMO)
        45                         -0.2934152              -7.9842
        46                         -0.2675677              -7.2809
        47                         -0.2592964              -7.0558
        48                         -0.2296761              -6.2498
       ...                                ...                  ...
        79                          0.6287614              17.1095
      -------------------------------------------------------------
                  HL-Gap            0.0687630 Eh            1.8711 eV
             Fermi-level           -0.3584455 Eh           -9.7538 eV

 SCC (total)                   0 d,  0 h,  0 min,  0.020 sec
 SCC setup                      ...        0 min,  0.000 sec (  0.642%)
 Dispersion                     ...        0 min,  0.000 sec (  1.033%)
 classical contributions        ...        0 min,  0.000 sec (  0.196%)
 integral evaluation            ...        0 min,  0.003 sec ( 12.435%)
 iterations                     ...        0 min,  0.014 sec ( 70.343%)
 molecular gradient             ...        0 min,  0.003 sec ( 14.866%)
 printout                       ...        0 min,  0.000 sec (  0.407%)

         :::::::::::::::::::::::::::::::::::::::::::::::::::::
         ::                     SUMMARY                     ::
         :::::::::::::::::::::::::::::::::::::::::::::::::::::
         :: total energy             -49.865212579641 Eh    ::
         :: gradient norm              0.074053765659 Eh/a0 ::
         :: HOMO-LUMO gap              1.871137503390 eV    ::
         ::.................................................::
         :: SCC energy               -50.426796684454 Eh    ::
         :: -> isotropic ES            0.075030090722 Eh    ::
         :: -> anisotropic ES          0.002698630523 Eh    ::
         :: -> anisotropic XC          0.019278561984 Eh    ::
         :: -> dispersion             -0.024861260724 Eh    ::
         :: repulsion energy           0.561584104813 Eh    ::
         :: add. restraining           0.000000000000 Eh    ::
         :: total charge              -0.000000000000 e     ::
         :::::::::::::::::::::::::::::::::::::::::::::::::::::

      ----------------------------------------------------------- 
     |                   =====================                   |
     |                        A N C O P T                        |
     |                   =====================                   |
     |               Approximate Normal Coordinate               |
     |                Rational Function Optimizer                |
      ----------------------------------------------------------- 
      ----------------------------------------------------------- 
     |                   =====================                   |
     |                        A N C O P T                        |
     |                   =====================                   |
     |               Approximate Normal Coordinate               |
     |                Rational Function Optimizer                |
      ----------------------------------------------------------- 

          ...................................................
          :                      SETUP                      :
          :.................................................:
          :   optimization level            normal          :
          :   max. optcycles                   200          :
          :   ANC micro-cycles                  20          :
          :   degrees of freedom                63          :
          :.................................................:
          :   RF solver                   davidson          :
          :   write xtbopt.log                true          :
          :   linear?                        false          :
          :   energy convergence         0.5000000E-05 Eh   :
          :   grad. convergence          0.1000000E-02 Eh/α :
          :   maxmium RF displ.          1.0000000          :
          :   Hlow (freq-cutoff)         0.1000000E-01      :
          :   Hmax (freq-cutoff)         5.0000000          :
          :   S6 in model hess.         20.0000000          :
          ...................................................

generating ANC from exact Hessian ...
Using Lindh-Hessian (1995)
 Shifting diagonal of input Hessian by    8.9023558931520357E-003
 Lowest  eigenvalues of input Hessian
    0.000000    0.000000    0.000000    0.000000    0.000000    0.000000
    0.010000    0.010595    0.011259    0.014901    0.016302    0.020766
    0.023267    0.025318    0.028669    0.030467    0.038296    0.039052
 Highest eigenvalues
    1.950201    2.011126    2.039512    2.081906    2.121517    2.331626


........................................................................
.............................. CYCLE    1 ..............................
........................................................................

 iter      E             dE          RMSdq      gap      omega  full diag
   1    -50.4266921 -0.504267E+02  0.188E-04    1.87       0.0  T
   2    -50.4266921 -0.112678E-09  0.144E-04    1.87     144.6  T
   3    -50.4266921 -0.527578E-10  0.112E-04    1.87     186.1  T
     SCC iter.                  ...        0 min,  0.006 sec
     gradient                   ...        0 min,  0.003 sec
 * total energy  :   -49.8652126 Eh     change       -0.8031265E-09 Eh
   gradient norm :     0.0740525 Eh/α   predicted     0.0000000E+00 (-100.00%)
   displ. norm   :     0.1587701 α      lambda       -0.6651436E-02
   maximum displ.:     0.0661272 α      in ANC's #31, #12, #24, ...

........................................................................
.............................. CYCLE    2 ..............................
........................................................................

 iter      E             dE          RMSdq      gap      omega  full diag
   1    -50.4580627 -0.504581E+02  0.153E-01    1.92       0.0  T
   2    -50.4581332 -0.705435E-04  0.105E-01    1.92       1.0  T
   3    -50.4581365 -0.328785E-05  0.521E-02    1.92       1.0  T
   4    -50.4581585 -0.219614E-04  0.140E-02    1.92       1.5  T
   5    -50.4581605 -0.204360E-05  0.476E-03    1.92       4.4  T
   6    -50.4581607 -0.129474E-06  0.324E-03    1.92       6.4  T
   7    -50.4581607 -0.525940E-07  0.204E-03    1.92      10.2  T
   8    -50.4581607 -0.362543E-07  0.146E-03    1.92      14.3  T
   9    -50.4581608 -0.206363E-07  0.676E-04    1.92      30.9  T
  10    -50.4581608 -0.360163E-08  0.394E-04    1.92      53.0  T
     SCC iter.                  ...        0 min,  0.009 sec
     gradient                   ...        0 min,  0.003 sec
 * total energy  :   -49.8696508 Eh     change       -0.4438220E-02 Eh
   gradient norm :     0.0242243 Eh/α   predicted    -0.3409774E-02 ( -23.17%)
   displ. norm   :     0.1497580 α      lambda       -0.1541615E-02
   maximum displ.:     0.0679785 α      in ANC's #1, #4, #24, ...

........................................................................
.............................. CYCLE    3 ..............................
........................................................................

 iter      E             dE          RMSdq      gap      omega  full diag
   1    -50.4697669 -0.504698E+02  0.106E-01    1.94       0.0  T
   2    -50.4697854 -0.184547E-04  0.685E-02    1.94       1.0  T
   3    -50.4697775  0.788865E-05  0.343E-02    1.93       1.0  T
   4    -50.4697942 -0.166818E-04  0.699E-03    1.94       3.0  T
   5    -50.4697946 -0.433296E-06  0.334E-03    1.94       6.2  T
   6    -50.4697947 -0.465883E-07  0.225E-03    1.94       9.3  T
   7    -50.4697947 -0.262842E-07  0.143E-03    1.94      14.6  T
   8    -50.4697947 -0.166606E-07  0.104E-03    1.94      20.1  T
   9    -50.4697947 -0.105626E-07  0.438E-04    1.94      47.6  T
  10    -50.4697947 -0.152018E-08  0.267E-04    1.94      78.1  T
     SCC iter.                  ...        0 min,  0.009 sec
     gradient                   ...        0 min,  0.003 sec
 * total energy  :   -49.8705685 Eh     change       -0.9176888E-03 Eh
   gradient norm :     0.0075782 Eh/α   predicted    -0.7881898E-03 ( -14.11%)
   displ. norm   :     0.1313772 α      lambda       -0.3127120E-03
   maximum displ.:     0.0807594 α      in ANC's #1, #2, #4, ...

........................................................................
.............................. CYCLE    4 ..............................
........................................................................

 iter      E             dE          RMSdq      gap      omega  full diag
   1    -50.4696514 -0.504697E+02  0.718E-02    1.94       0.0  T
   2    -50.4696533 -0.189058E-05  0.419E-02    1.94       1.0  T
   3    -50.4696502  0.310627E-05  0.130E-02    1.94       1.6  T
   4    -50.4696541 -0.389582E-05  0.264E-03    1.94       7.9  T
   5    -50.4696541 -0.475937E-07  0.144E-03    1.94      14.5  T
   6    -50.4696541 -0.131942E-07  0.723E-04    1.94      28.9  T
   7    -50.4696541 -0.170357E-08  0.450E-04    1.94      46.4  T
     SCC iter.                  ...        0 min,  0.006 sec
     gradient                   ...        0 min,  0.003 sec
 * total energy  :   -49.8708098 Eh     change       -0.2412736E-03 Eh
   gradient norm :     0.0065964 Eh/α   predicted    -0.1590565E-03 ( -34.08%)
   displ. norm   :     0.2357681 α      lambda       -0.3308535E-03
   maximum displ.:     0.1481053 α      in ANC's #1, #2, #4, ...

........................................................................
.............................. CYCLE    5 ..............................
........................................................................

 iter      E             dE          RMSdq      gap      omega  full diag
   1    -50.4672714 -0.504673E+02  0.123E-01    1.94       0.0  T
   2    -50.4672754 -0.405900E-05  0.718E-02    1.94       1.0  T
   3    -50.4672699  0.553781E-05  0.176E-02    1.94       1.2  T
   4    -50.4672770 -0.711955E-05  0.377E-03    1.94       5.5  T
   5    -50.4672771 -0.771955E-07  0.206E-03    1.94      10.1  T
   6    -50.4672771 -0.420018E-07  0.912E-04    1.94      22.9  T
   7    -50.4672771 -0.373074E-08  0.547E-04    1.94      38.1  T
     SCC iter.                  ...        0 min,  0.006 sec
     gradient                   ...        0 min,  0.003 sec
 * total energy  :   -49.8710367 Eh     change       -0.2269563E-03 Eh
   gradient norm :     0.0042534 Eh/α   predicted    -0.1746225E-03 ( -23.06%)
   displ. norm   :     0.1987101 α      lambda       -0.1611942E-03
   maximum displ.:     0.1315869 α      in ANC's #1, #2, #3, ...

........................................................................
.............................. CYCLE    6 ..............................
........................................................................

 iter      E             dE          RMSdq      gap      omega  full diag
   1    -50.4662362 -0.504662E+02  0.101E-01    1.94       0.0  T
   2    -50.4662382 -0.203707E-05  0.589E-02    1.93       1.0  T
   3    -50.4662352  0.302460E-05  0.131E-02    1.93       1.6  T
   4    -50.4662391 -0.390848E-05  0.267E-03    1.93       7.8  T
   5    -50.4662391 -0.256787E-07  0.140E-03    1.93      14.9  T
   6    -50.4662391 -0.181177E-07  0.675E-04    1.93      30.9  T
   7    -50.4662391 -0.348560E-08  0.434E-04    1.93      48.0  T
     SCC iter.                  ...        0 min,  0.011 sec
     gradient                   ...        0 min,  0.003 sec
 * total energy  :   -49.8711668 Eh     change       -0.1301232E-03 Eh
   gradient norm :     0.0042629 Eh/α   predicted    -0.8378809E-04 ( -35.61%)
   displ. norm   :     0.2326910 α      lambda       -0.1869525E-03
   maximum displ.:     0.1518841 α      in ANC's #1, #2, #3, ...

........................................................................
.............................. CYCLE    7 ..............................
........................................................................

 iter      E             dE          RMSdq      gap      omega  full diag
   1    -50.4661412 -0.504661E+02  0.118E-01    1.93       0.0  T
   2    -50.4661433 -0.203772E-05  0.686E-02    1.93       1.0  T
   3    -50.4661406  0.265083E-05  0.125E-02    1.93       1.7  T
   4    -50.4661442 -0.356532E-05  0.282E-03    1.93       7.4  T
   5    -50.4661442 -0.213997E-07  0.137E-03    1.93      15.2  T
   6    -50.4661442 -0.155458E-07  0.691E-04    1.93      30.2  T
   7    -50.4661442 -0.450012E-08  0.452E-04    1.93      46.1  T
     SCC iter.                  ...        0 min,  0.006 sec
     gradient                   ...        0 min,  0.003 sec
 * total energy  :   -49.8713280 Eh     change       -0.1611483E-03 Eh
   gradient norm :     0.0057874 Eh/α   predicted    -0.9855823E-04 ( -38.84%)
   displ. norm   :     0.3374913 α      lambda       -0.2699712E-03
   maximum displ.:     0.2232021 α      in ANC's #1, #2, #3, ...

........................................................................
.............................. CYCLE    8 ..............................
........................................................................

 iter      E             dE          RMSdq      gap      omega  full diag
   1    -50.4663791 -0.504664E+02  0.170E-01    1.93       0.0  T
   2    -50.4663826 -0.349827E-05  0.992E-02    1.93       1.0  T
   3    -50.4663798  0.278708E-05  0.143E-02    1.93       1.5  T
   4    -50.4663841 -0.429990E-05  0.388E-03    1.93       5.4  T
   5    -50.4663841 -0.323054E-07  0.172E-03    1.93      12.1  T
   6    -50.4663842 -0.289148E-07  0.847E-04    1.93      24.6  T
   7    -50.4663842 -0.550228E-08  0.575E-04    1.93      36.3  T
     SCC iter.                  ...        0 min,  0.006 sec
     gradient                   ...        0 min,  0.003 sec
 * total energy  :   -49.8715504 Eh     change       -0.2223805E-03 Eh
   gradient norm :     0.0072648 Eh/α   predicted    -0.1503628E-03 ( -32.38%)
   displ. norm   :     0.3932560 α      lambda       -0.2713070E-03
   maximum displ.:     0.2678467 α      in ANC's #1, #2, #3, ...

........................................................................
.............................. CYCLE    9 ..............................
........................................................................

 iter      E             dE          RMSdq      gap      omega  full diag
   1    -50.4662340 -0.504662E+02  0.200E-01    1.92       0.0  T
   2    -50.4662380 -0.402615E-05  0.117E-01    1.92       1.0  T
   3    -50.4662357  0.227044E-05  0.141E-02    1.92       1.5  T
   4    -50.4662398 -0.400831E-05  0.436E-03    1.92       4.8  T
   5    -50.4662398 -0.395774E-07  0.202E-03    1.92      10.3  T
   6    -50.4662398 -0.459806E-07  0.995E-04    1.92      21.0  T
   7    -50.4662398 -0.496268E-08  0.714E-04    1.92      29.2  T
     SCC iter.                  ...        0 min,  0.008 sec
     gradient                   ...        0 min,  0.006 sec
 * total energy  :   -49.8717615 Eh     change       -0.2111622E-03 Eh
   gradient norm :     0.0067684 Eh/α   predicted    -0.1566335E-03 ( -25.82%)
   displ. norm   :     0.3347268 α      lambda       -0.2040856E-03
   maximum displ.:     0.2439077 α      in ANC's #1, #2, #3, ...

........................................................................
.............................. CYCLE   10 ..............................
........................................................................

 iter      E             dE          RMSdq      gap      omega  full diag
   1    -50.4671100 -0.504671E+02  0.171E-01    1.91       0.0  T
   2    -50.4671125 -0.243623E-05  0.100E-01    1.91       1.0  T
   3    -50.4671113  0.115175E-05  0.105E-02    1.91       2.0  T
   4    -50.4671136 -0.225777E-05  0.361E-03    1.91       5.8  T
   5    -50.4671136 -0.290829E-07  0.180E-03    1.91      11.6  T
   6    -50.4671136 -0.396396E-07  0.921E-04    1.91      22.6  T
   7    -50.4671136 -0.300231E-08  0.661E-04    1.91      31.6  T
     SCC iter.                  ...        0 min,  0.010 sec
     gradient                   ...        0 min,  0.003 sec
 * total energy  :   -49.8719167 Eh     change       -0.1551319E-03 Eh
   gradient norm :     0.0042146 Eh/α   predicted    -0.1134775E-03 ( -26.85%)
   displ. norm   :     0.2882814 α      lambda       -0.1361851E-03
   maximum displ.:     0.2198485 α      in ANC's #1, #3, #2, ...

........................................................................
.............................. CYCLE   11 ..............................
........................................................................

 iter      E             dE          RMSdq      gap      omega  full diag
   1    -50.4678539 -0.504679E+02  0.147E-01    1.91       0.0  T
   2    -50.4678555 -0.155487E-05  0.861E-02    1.91       1.0  T
   3    -50.4678537  0.173329E-05  0.101E-02    1.91       2.1  T
   4    -50.4678563 -0.256905E-05  0.289E-03    1.91       7.2  T
   5    -50.4678563 -0.159612E-07  0.130E-03    1.91      16.0  T
   6    -50.4678563 -0.176095E-07  0.716E-04    1.91      29.1  T
   7    -50.4678563 -0.230387E-08  0.509E-04    1.91      41.0  T
     SCC iter.                  ...        0 min,  0.006 sec
     gradient                   ...        0 min,  0.003 sec
 * total energy  :   -49.8720217 Eh     change       -0.1050083E-03 Eh
   gradient norm :     0.0024927 Eh/α   predicted    -0.7375943E-04 ( -29.76%)
   displ. norm   :     0.2483684 α      lambda       -0.9500829E-04
   maximum displ.:     0.1993319 α      in ANC's #1, #3, #2, ...

........................................................................
.............................. CYCLE   12 ..............................
........................................................................

 iter      E             dE          RMSdq      gap      omega  full diag
   1    -50.4684254 -0.504684E+02  0.124E-01    1.91       0.0  T
   2    -50.4684264 -0.995556E-06  0.723E-02    1.91       1.0  T
   3    -50.4684251  0.126691E-05  0.825E-03    1.91       2.5  T
   4    -50.4684269 -0.183278E-05  0.225E-03    1.91       9.3  T
   5    -50.4684269 -0.734812E-08  0.906E-04    1.91      23.0  T
   6    -50.4684270 -0.885149E-08  0.461E-04    1.91      45.2  T
     SCC iter.                  ...        0 min,  0.005 sec
     gradient                   ...        0 min,  0.003 sec
 * total energy  :   -49.8720976 Eh     change       -0.7595122E-04 Eh
   gradient norm :     0.0027027 Eh/α   predicted    -0.5043690E-04 ( -33.59%)
   displ. norm   :     0.2082614 α      lambda       -0.7006600E-04
   maximum displ.:     0.1732749 α      in ANC's #1, #3, #5, ...

........................................................................
.............................. CYCLE   13 ..............................
........................................................................

 iter      E             dE          RMSdq      gap      omega  full diag
   1    -50.4686893 -0.504687E+02  0.102E-01    1.91       0.0  T
   2    -50.4686899 -0.618296E-06  0.596E-02    1.91       1.0  T
   3    -50.4686887  0.119919E-05  0.728E-03    1.91       2.9  T
   4    -50.4686903 -0.157353E-05  0.173E-03    1.91      12.1  T
   5    -50.4686903 -0.580191E-08  0.849E-04    1.91      24.6  T
   6    -50.4686903 -0.593393E-08  0.296E-04    1.91      70.5  T
     SCC iter.                  ...        0 min,  0.005 sec
     gradient                   ...        0 min,  0.003 sec
 * total energy  :   -49.8721561 Eh     change       -0.5844215E-04 Eh
   gradient norm :     0.0028596 Eh/α   predicted    -0.3655298E-04 ( -37.45%)
   displ. norm   :     0.1749441 α      lambda       -0.5648674E-04
   maximum displ.:     0.1513501 α      in ANC's #1, #3, #5, ...

........................................................................
.............................. CYCLE   14 ..............................
........................................................................

 iter      E             dE          RMSdq      gap      omega  full diag
   1    -50.4689136 -0.504689E+02  0.820E-02    1.91       0.0  T
   2    -50.4689140 -0.463968E-06  0.480E-02    1.91       1.0  T
   3    -50.4689132  0.772690E-06  0.581E-03    1.91       3.6  T
   4    -50.4689143 -0.102170E-05  0.140E-03    1.91      14.9  T
   5    -50.4689143 -0.744405E-08  0.778E-04    1.91      26.8  T
   6    -50.4689143 -0.484435E-08  0.261E-04    1.91      80.0  T
     SCC iter.                  ...        0 min,  0.005 sec
     gradient                   ...        0 min,  0.003 sec
 * total energy  :   -49.8722033 Eh     change       -0.4719525E-04 Eh
   gradient norm :     0.0022722 Eh/α   predicted    -0.2910875E-04 ( -38.32%)
   displ. norm   :     0.1461330 α      lambda       -0.4582044E-04
   maximum displ.:     0.1296201 α      in ANC's #1, #3, #5, ...

........................................................................
.............................. CYCLE   15 ..............................
........................................................................

 iter      E             dE          RMSdq      gap      omega  full diag
   1    -50.4688845 -0.504689E+02  0.689E-02    1.91       0.0  T
   2    -50.4688848 -0.270669E-06  0.404E-02    1.91       1.0  T
   3    -50.4688843  0.477324E-06  0.458E-03    1.91       4.6  T
   4    -50.4688849 -0.623876E-06  0.110E-03    1.91      18.9  T
   5    -50.4688850 -0.680938E-08  0.639E-04    1.91      32.6  T
   6    -50.4688850 -0.278447E-08  0.186E-04    1.91     112.3  T
     SCC iter.                  ...        0 min,  0.005 sec
     gradient                   ...        0 min,  0.003 sec
 * total energy  :   -49.8722417 Eh     change       -0.3842332E-04 Eh
   gradient norm :     0.0018892 Eh/α   predicted    -0.2340203E-04 ( -39.09%)
   displ. norm   :     0.1697951 α      lambda       -0.3538049E-04
   maximum displ.:     0.1533910 α      in ANC's #1, #3, #2, ...

........................................................................
.............................. CYCLE   16 ..............................
........................................................................

 iter      E             dE          RMSdq      gap      omega  full diag
   1    -50.4689006 -0.504689E+02  0.783E-02    1.91       0.0  T
   2    -50.4689010 -0.445067E-06  0.459E-02    1.91       1.0  T
   3    -50.4689007  0.303305E-06  0.435E-03    1.91       4.8  T
   4    -50.4689012 -0.493972E-06  0.137E-03    1.91      15.3  T
   5    -50.4689012 -0.712308E-08  0.730E-04    1.91      28.6  T
   6    -50.4689012 -0.533343E-08  0.326E-04    1.91      64.0  T
     SCC iter.                  ...        0 min,  0.005 sec
     gradient                   ...        0 min,  0.003 sec
 * total energy  :   -49.8722855 Eh     change       -0.4379452E-04 Eh
   gradient norm :     0.0019155 Eh/α   predicted    -0.1791994E-04 ( -59.08%)
   displ. norm   :     0.1394262 α      lambda       -0.2789531E-04
   maximum displ.:     0.1255031 α      in ANC's #1, #2, #25, ...

........................................................................
.............................. CYCLE   17 ..............................
........................................................................

 iter      E             dE          RMSdq      gap      omega  full diag
   1    -50.4690965 -0.504691E+02  0.658E-02    1.91       0.0  T
   2    -50.4690968 -0.358655E-06  0.385E-02    1.91       1.0  T
   3    -50.4690968 -0.285256E-08  0.283E-03    1.91       7.4  T
   4    -50.4690970 -0.136461E-06  0.130E-03    1.91      16.1  T
   5    -50.4690970 -0.924400E-08  0.535E-04    1.91      39.0  T
   6    -50.4690970 -0.251419E-08  0.321E-04    1.91      64.9  T
     SCC iter.                  ...        0 min,  0.008 sec
     gradient                   ...        0 min,  0.003 sec
 * total energy  :   -49.8723197 Eh     change       -0.3426309E-04 Eh
   gradient norm :     0.0018894 Eh/α   predicted    -0.1407231E-04 ( -58.93%)
   displ. norm   :     0.1346265 α      lambda       -0.2634689E-04
   maximum displ.:     0.1200798 α      in ANC's #1, #2, #4, ...

........................................................................
.............................. CYCLE   18 ..............................
........................................................................

 iter      E             dE          RMSdq      gap      omega  full diag
   1    -50.4682810 -0.504683E+02  0.659E-02    1.90       0.0  T
   2    -50.4682815 -0.494367E-06  0.384E-02    1.90       1.0  T
   3    -50.4682814  0.754355E-07  0.353E-03    1.90       5.9  T
   4    -50.4682817 -0.234119E-06  0.135E-03    1.90      15.5  T
   5    -50.4682817 -0.119455E-07  0.633E-04    1.90      32.9  T
   6    -50.4682817 -0.171027E-08  0.356E-04    1.90      58.5  T
     SCC iter.                  ...        0 min,  0.007 sec
     gradient                   ...        0 min,  0.003 sec
 * total energy  :   -49.8723478 Eh     change       -0.2800769E-04 Eh
   gradient norm :     0.0017232 Eh/α   predicted    -0.1328048E-04 ( -52.58%)
   displ. norm   :     0.1738272 α      lambda       -0.2490145E-04
   maximum displ.:     0.1499688 α      in ANC's #1, #2, #3, ...

........................................................................
.............................. CYCLE   19 ..............................
........................................................................

 iter      E             dE          RMSdq      gap      omega  full diag
   1    -50.4688835 -0.504689E+02  0.848E-02    1.90       0.0  T
   2    -50.4688844 -0.823721E-06  0.494E-02    1.90       1.0  T
   3    -50.4688844 -0.172273E-07  0.464E-03    1.90       4.5  T
   4    -50.4688847 -0.288728E-06  0.199E-03    1.90      10.5  T
   5    -50.4688847 -0.143660E-07  0.818E-04    1.90      25.5  T
   6    -50.4688847 -0.647220E-08  0.499E-04    1.90      41.8  T
     SCC iter.                  ...        0 min,  0.005 sec
     gradient                   ...        0 min,  0.003 sec
 * total energy  :   -49.8723673 Eh     change       -0.1958023E-04 Eh
   gradient norm :     0.0016930 Eh/α   predicted    -0.1262003E-04 ( -35.55%)
   displ. norm   :     0.1075362 α      lambda       -0.1283313E-04
   maximum displ.:     0.0984664 α      in ANC's #1, #2, #25, ...

........................................................................
.............................. CYCLE   20 ..............................
........................................................................

 iter      E             dE          RMSdq      gap      omega  full diag
   1    -50.4686314 -0.504686E+02  0.537E-02    1.90       0.0  T
   2    -50.4686317 -0.374503E-06  0.315E-02    1.90       1.0  T
   3    -50.4686317  0.816288E-07  0.303E-03    1.90       6.9  T
   4    -50.4686319 -0.187777E-06  0.129E-03    1.90      16.2  T
   5    -50.4686319 -0.160816E-07  0.629E-04    1.90      33.1  T
   6    -50.4686319 -0.304708E-08  0.341E-04    1.90      61.2  T
     SCC iter.                  ...        0 min,  0.005 sec
     gradient                   ...        0 min,  0.003 sec
 * total energy  :   -49.8723726 Eh     change       -0.5221625E-05 Eh
   gradient norm :     0.0021535 Eh/α   predicted    -0.6450793E-05 (  23.54%)
   displ. norm   :     0.0219636 α      lambda       -0.7910266E-05
   maximum displ.:     0.0154738 α      in ANC's #1, #2, #3, ...
 * RMSD in coord.:     0.7259827 α      energy gain  -0.7159973E-02 Eh

generating ANC from exact Hessian ...
Using Lindh-Hessian (1995)
 Shifting diagonal of input Hessian by    8.9018998447900517E-003
 Lowest  eigenvalues of input Hessian
    0.000000    0.000000    0.000000    0.000000    0.000000    0.000000
    0.010000    0.010788    0.011505    0.014710    0.015829    0.021725
    0.024527    0.025811    0.030599    0.031488    0.038688    0.039869
 Highest eigenvalues
    1.954302    2.053476    2.096824    2.149186    2.241304    2.428871


........................................................................
.............................. CYCLE   21 ..............................
........................................................................

 iter      E             dE          RMSdq      gap      omega  full diag
   1    -50.4683080 -0.504683E+02  0.126E-02    1.90       0.0  T
   2    -50.4683081 -0.102728E-06  0.746E-03    1.90       2.8  T
   3    -50.4683080  0.116271E-06  0.346E-03    1.90       6.0  T
   4    -50.4683082 -0.167657E-06  0.602E-04    1.90      34.7  T
   5    -50.4683082 -0.143344E-08  0.398E-04    1.90      52.3  T
     SCC iter.                  ...        0 min,  0.004 sec
     gradient                   ...        0 min,  0.003 sec
 * total energy  :   -49.8723772 Eh     change       -0.4647072E-05 Eh
   gradient norm :     0.0011024 Eh/α   predicted     0.0000000E+00 (-100.00%)
   displ. norm   :     0.0174016 α      lambda       -0.3323603E-05
   maximum displ.:     0.0131136 α      in ANC's #2, #1, #3, ...

........................................................................
.............................. CYCLE   22 ..............................
........................................................................

 iter      E             dE          RMSdq      gap      omega  full diag
   1    -50.4688800 -0.504689E+02  0.107E-02    1.90       0.0  T
   2    -50.4688801 -0.349557E-07  0.634E-03    1.90       3.3  T
   3    -50.4688800  0.606060E-07  0.172E-03    1.90      12.1  T
   4    -50.4688801 -0.752438E-07  0.376E-04    1.90      55.4  T
   5    -50.4688801 -0.782599E-09  0.239E-04    1.90      87.1  T
     SCC iter.                  ...        0 min,  0.004 sec
     gradient                   ...        0 min,  0.003 sec
 * total energy  :   -49.8723799 Eh     change       -0.2688279E-05 Eh
   gradient norm :     0.0005559 Eh/α   predicted    -0.1860673E-05 ( -30.79%)
   displ. norm   :     0.0220432 α      lambda       -0.2232886E-05
   maximum displ.:     0.0165171 α      in ANC's #2, #1, #3, ...

   *** GEOMETRY OPTIMIZATION CONVERGED AFTER 22 ITERATIONS ***

------------------------------------------------------------------------
 total energy gain   :        -0.0071673 Eh       -4.4976 kcal/mol
 total RMSD          :         0.7282492 a0        0.3854 Å
 total power (kW/mol):        -0.8553530 (step)  -73.2538 (real)
------------------------------------------------------------------------

 ANCopt (total)                0 d,  0 h,  0 min,  0.257 sec
 optimizer setup                ...        0 min,  0.000 sec (  0.029%)
 model hessian                  ...        0 min,  0.005 sec (  2.118%)
 ANC generation                 ...        0 min,  0.001 sec (  0.333%)
 coordinate transformation      ...        0 min,  0.000 sec (  0.075%)
 single point calculation       ...        0 min,  0.244 sec ( 94.939%)
 optimization log               ...        0 min,  0.003 sec (  1.178%)
 hessian update                 ...        0 min,  0.001 sec (  0.331%)
 rational function              ...        0 min,  0.002 sec (  0.593%)

================
 final structure:
================
23
 xtb: 6.7.1 (edcfbbe)
N            1.17305789821914        0.35662235953778        0.51027486047644
C            1.07998666147706       -0.92266751162957        0.14349727905736
C           -0.16951147919468       -1.48625528737160       -0.13672861370926
C           -1.27215901676708       -0.64608999443539       -0.03372092500110
N           -1.15690551415130        0.63187699940990        0.31392235914702
C            0.06146168327337        1.06078286383593        0.57384215410224
C           -2.65974570474446       -1.13280341319463       -0.31768079983533
O           -3.62695589691533       -0.43558294675175       -0.43278554174454
O           -2.70759138548069       -2.46914368467259       -0.43432239299825
C            2.33539163217697       -1.67763350828279        0.07318810844904
C            3.45737821703148       -1.19340259847102        0.74737519633257
C            4.65725233787410       -1.87350440878169        0.70881193087533
C            4.76821294399396       -3.05343735860054       -0.01535457313989
C            3.65061922689445       -3.52787331086313       -0.69647019006591
C            2.44405996108932       -2.85893808888998       -0.65746225261726
F            3.73706824683065       -4.66000029715605       -1.41384827647021
Cl           6.25768771717112       -3.91323858346205       -0.08012700160017
H           -0.29374577681623       -2.52161479145551       -0.40249745930013
H            0.15969152773852        2.09718581163810        0.86952879217656
H           -3.61883539772390       -2.75230464522584       -0.61201888025874
H            3.36530178826952       -0.27337141502457        1.30162317308556
H            5.51896494907846       -1.49712866178865        1.23621372860499
H            1.61703538067590       -3.26284752836461       -1.21915067556638

 Bond Distances (Angstroems)
 ---------------------------
N1-C2=1.3341         N1-C6=1.3174         C2-N1=1.3341         C2-C3=1.3991         C2-C10=1.4666        C3-C2=1.3991         
C3-C4=1.3901         C3-H18=1.0761        C4-C3=1.3901         C4-N5=1.3294         C4-C7=1.4976         N5-C4=1.3294         
N5-C6=1.3175         C6-N1=1.3174         C6-N5=1.3175         C6-H19=1.0822        C7-C4=1.4976         C7-O8=1.1979         
C7-O9=1.3423         O8-C7=1.1979         O9-C7=1.3423         O9-H20=0.9706        C10-C2=1.4666        C10-C11=1.3957       
C10-C15=1.3932       C11-C10=1.3957       C11-C12=1.3798       C11-H21=1.0780       C12-C11=1.3798       C12-C13=1.3889       
C12-H22=1.0781       C13-C12=1.3889       C13-C14=1.3921       C13-Cl17=1.7210      C14-C13=1.3921       C14-C15=1.3801       
C14-F16=1.3431       C15-C10=1.3932       C15-C14=1.3801       C15-H23=1.0782       F16-C14=1.3431       Cl17-C13=1.7210      
H18-C3=1.0761        H19-C6=1.0822        H20-O9=0.9706        H21-C11=1.0780       H22-C12=1.0781       H23-C15=1.0782       
 C  H  Rav=1.0785 sigma=0.0020  Rmin=1.0761  Rmax=1.0822     5
 C  C  Rav=1.4083 sigma=0.0380  Rmin=1.3798  Rmax=1.4976    10
 N  C  Rav=1.3246 sigma=0.0073  Rmin=1.3174  Rmax=1.3341     4
 O  H  Rav=0.9706 sigma=0.0000  Rmin=0.9706  Rmax=0.9706     1
 O  C  Rav=1.2701 sigma=0.0722  Rmin=1.1979  Rmax=1.3423     2
 F  C  Rav=1.3431 sigma=0.0000  Rmin=1.3431  Rmax=1.3431     1
 Cl C  Rav=1.7210 sigma=0.0000  Rmin=1.7210  Rmax=1.7210     1

 selected bond angles (degree)
 --------------------
C6-N1-C2=117.84                C3-C2-N1=120.24                C10-C2-N1=116.56               C10-C2-C3=123.20               
C4-C3-C2=116.75                H18-C3-C2=122.69               H18-C3-C4=120.55               N5-C4-C3=122.12                
C7-C4-C3=121.63                C7-C4-N5=116.25                C6-N5-C4=116.40                N5-C6-N1=126.64                
H19-C6-N1=116.65               H19-C6-N5=116.72               O8-C7-C4=125.25                O9-C7-C4=111.90                
O9-C7-O8=122.84                H20-O9-C7=109.87               C11-C10-C2=119.10              C15-C10-C2=121.90              
C15-C10-C11=119.00             

 selected dihedral angles (degree)
 ---------------------------------
C3-C2-N1-C6=358.86            C10-C2-N1-C6=179.59           C4-C3-C2-N1=  1.05            C4-C3-C2-C10=180.26           
H18-C3-C2-N1=182.18           H18-C3-C2-C10=  1.39          N5-C4-C3-C2=359.97            N5-C4-C3-H18=178.86           
C7-C4-C3-C2=179.60            C7-C4-C3-H18=358.50           C6-N5-C4-C3=359.18            C6-N5-C4-C7=179.52            
N5-C6-N1-C2=  0.22            H19-C6-N1-C2=180.24           N1-C6-N5-C4=  0.77            H19-C6-N5-C4=180.75           
O8-C7-C4-C3=191.03            O8-C7-C4-N5= 10.68            O9-C7-C4-C3= 10.96            O9-C7-C4-N5=190.62            
H20-O9-C7-C4=179.64           H20-O9-C7-O8=359.58           C11-C10-C2-N1= 18.98          C11-C10-C2-C3=199.74          
C15-C10-C2-N1=199.57          C15-C10-C2-C3= 20.33          
           -------------------------------------------------
          |                Final Singlepoint                |
           -------------------------------------------------

          ...................................................
          :                      SETUP                      :
          :.................................................:
          :  # basis functions                  80          :
          :  # atomic orbitals                  79          :
          :  # shells                           41          :
          :  # electrons                        86          :
          :  max. iterations                   250          :
          :  Hamiltonian                  GFN2-xTB          :
          :  restarted?                      false          :
          :  GBSA solvation                  false          :
          :  PC potential                    false          :
          :  electronic temp.          300.0000000     K    :
          :  accuracy                    1.0000000          :
          :  -> integral cutoff          0.2500000E+02      :
          :  -> integral neglect         0.1000000E-07      :
          :  -> SCF convergence          0.1000000E-05 Eh   :
          :  -> wf. convergence          0.1000000E-03 e    :
          :  Broyden damping             0.4000000          :
          :  net charge                          0          :
          :  unpaired electrons                  0          :
          ...................................................

 iter      E             dE          RMSdq      gap      omega  full diag
   1    -50.4688801 -0.504689E+02  0.157E-04    1.90       0.0  T
   2    -50.4688801 -0.957314E-10  0.130E-04    1.90     159.9  T
   3    -50.4688801 -0.671250E-10  0.112E-04    1.90     185.7  T

   *** convergence criteria satisfied after 3 iterations ***

         #    Occupation            Energy/Eh            Energy/eV
      -------------------------------------------------------------
         1        2.0000           -1.0719177             -29.1684
       ...           ...                  ...                  ...
        37        2.0000           -0.4573153             -12.4442
        38        2.0000           -0.4437304             -12.0745
        39        2.0000           -0.4413946             -12.0110
        40        2.0000           -0.4356062             -11.8534
        41        2.0000           -0.4217119             -11.4754
        42        2.0000           -0.4172221             -11.3532
        43        2.0000           -0.3880048             -10.5581 (HOMO)
        44                         -0.3181737              -8.6579 (LUMO)
        45                         -0.2949119              -8.0250
        46                         -0.2626838              -7.1480
        47                         -0.2504435              -6.8149
        48                         -0.2183977              -5.9429
       ...                                ...                  ...
        79                          0.6826000              18.5745
      -------------------------------------------------------------
                  HL-Gap            0.0698310 Eh            1.9002 eV
             Fermi-level           -0.3530892 Eh           -9.6080 eV

 SCC (total)                   0 d,  0 h,  0 min,  0.007 sec
 SCC setup                      ...        0 min,  0.000 sec (  1.032%)
 Dispersion                     ...        0 min,  0.000 sec (  1.211%)
 classical contributions        ...        0 min,  0.000 sec (  0.197%)
 integral evaluation            ...        0 min,  0.001 sec ( 16.458%)
 iterations                     ...        0 min,  0.003 sec ( 37.885%)
 molecular gradient             ...        0 min,  0.003 sec ( 41.876%)
 printout                       ...        0 min,  0.000 sec (  1.125%)

         :::::::::::::::::::::::::::::::::::::::::::::::::::::
         ::                     SUMMARY                     ::
         :::::::::::::::::::::::::::::::::::::::::::::::::::::
         :: total energy             -49.872379888363 Eh    ::
         :: gradient norm              0.000556145537 Eh/a0 ::
         :: HOMO-LUMO gap              1.900199259232 eV    ::
         ::.................................................::
         :: SCC energy               -50.469021106290 Eh    ::
         :: -> isotropic ES            0.074454842245 Eh    ::
         :: -> anisotropic ES          0.001765919393 Eh    ::
         :: -> anisotropic XC          0.017558657346 Eh    ::
         :: -> dispersion             -0.025054860502 Eh    ::
         :: repulsion energy           0.596641217927 Eh    ::
         :: add. restraining           0.000000000000 Eh    ::
         :: total charge               0.000000000000 e     ::
         :::::::::::::::::::::::::::::::::::::::::::::::::::::

           -------------------------------------------------
          |                Property Printout                |
           -------------------------------------------------

    * Orbital Energies and Occupations

         #    Occupation            Energy/Eh            Energy/eV
      -------------------------------------------------------------
         1        2.0000           -1.0719177             -29.1684
       ...           ...                  ...                  ...
        31        2.0000           -0.5028744             -13.6839
        32        2.0000           -0.4976011             -13.5404
        33        2.0000           -0.4915495             -13.3757
        34        2.0000           -0.4785804             -13.0228
        35        2.0000           -0.4727313             -12.8637
        36        2.0000           -0.4680520             -12.7363
        37        2.0000           -0.4573153             -12.4442
        38        2.0000           -0.4437304             -12.0745
        39        2.0000           -0.4413946             -12.0110
        40        2.0000           -0.4356062             -11.8534
        41        2.0000           -0.4217119             -11.4754
        42        2.0000           -0.4172221             -11.3532
        43        2.0000           -0.3880048             -10.5581 (HOMO)
        44                         -0.3181737              -8.6579 (LUMO)
        45                         -0.2949119              -8.0250
        46                         -0.2626838              -7.1480
        47                         -0.2504435              -6.8149
        48                         -0.2183977              -5.9429
        49                         -0.1556128              -4.2344
        50                         -0.1485410              -4.0420
        51                         -0.1120566              -3.0492
        52                         -0.0047009              -0.1279
        53                          0.0017954               0.0489
        54                          0.0018926               0.0515
       ...                                ...                  ...
        79                          0.6826000              18.5745
      -------------------------------------------------------------
                  HL-Gap            0.0698310 Eh            1.9002 eV
             Fermi-level           -0.3530892 Eh           -9.6080 eV

     #   Z          covCN         q      C6AA      α(0)
     1   7 N        1.843    -0.231    26.897     7.686
     2   6 C        2.976     0.117    25.431     8.272
     3   6 C        2.910    -0.048    29.179     8.858
     4   6 C        2.983     0.088    26.037     8.370
     5   7 N        1.839    -0.212    26.453     7.622
     6   6 C        2.911     0.153    24.687     8.147
     7   6 C        2.695     0.354    20.993     7.499
     8   8 O        0.856    -0.365    20.990     6.143
     9   8 O        1.660    -0.377    20.413     6.099
    10   6 C        2.981     0.007    27.868     8.659
    11   6 C        2.925    -0.028    28.695     8.785
    12   6 C        2.952    -0.038    28.944     8.824
    13   6 C        2.882     0.085    26.110     8.377
    14   6 C        2.815     0.165    24.425     8.097
    15   6 C        2.921    -0.050    29.251     8.869
    16   9 F        0.787    -0.200    11.238     3.960
    17  17 Cl       0.959    -0.125   103.059    15.531
    18   1 H        0.926     0.068     2.107     2.270
    19   1 H        0.925     0.063     2.168     2.303
    20   1 H        0.804     0.337     0.621     1.238
    21   1 H        0.926     0.086     1.920     2.167
    22   1 H        0.926     0.077     2.009     2.216
    23   1 H        0.926     0.076     2.021     2.223

 Mol. C6AA /au·bohr⁶  :       9445.515008
 Mol. C8AA /au·bohr⁸  :     249536.600769
 Mol. α(0) /au        :        152.215096


Wiberg/Mayer (AO) data.
largest (>0.10) Wiberg bond orders for each atom

 ---------------------------------------------------------------------------
     #   Z sym  total        # sym  WBO       # sym  WBO       # sym  WBO
 ---------------------------------------------------------------------------
     1   7 N    3.066 --     6 C    1.439     2 C    1.379
     2   6 C    3.975 --     1 N    1.379     3 C    1.362    10 C    1.062
     3   6 C    3.986 --     4 C    1.414     2 C    1.362    18 H    0.961
                             6 C    0.106
     4   6 C    3.979 --     3 C    1.414     5 N    1.391     7 C    0.967
     5   7 N    3.062 --     6 C    1.432     4 C    1.391
     6   6 C    3.962 --     1 N    1.439     5 N    1.432    19 H    0.954
                             3 C    0.106
     7   6 C    3.921 --     8 O    1.785     9 O    1.123     4 C    0.967
     8   8 O    2.078 --     7 C    1.785     9 O    0.181
     9   8 O    2.197 --     7 C    1.123    20 H    0.862     8 O    0.181
    10   6 C    3.989 --    15 C    1.377    11 C    1.370     2 C    1.062
    11   6 C    3.985 --    12 C    1.461    10 C    1.370    21 H    0.961
    12   6 C    3.985 --    11 C    1.461    13 C    1.388    22 H    0.964
    13   6 C    3.921 --    12 C    1.388    14 C    1.342    17 Cl   1.007
    14   6 C    3.895 --    15 C    1.414    13 C    1.342    16 F    0.976
    15   6 C    3.986 --    14 C    1.414    10 C    1.377    23 H    0.960
    16   9 F    1.115 --    14 C    0.976
    17  17 Cl   1.155 --    13 C    1.007
    18   1 H    0.995 --     3 C    0.961
    19   1 H    0.995 --     6 C    0.954
    20   1 H    0.886 --     9 O    0.862
    21   1 H    0.993 --    11 C    0.961
    22   1 H    0.994 --    12 C    0.964
    23   1 H    0.994 --    15 C    0.960
 ---------------------------------------------------------------------------

Topologies differ in total number of bonds
Writing topology from bond orders to xtbtopo.mol

molecular dipole:
                 x           y           z       tot (Debye)
 q only:        0.217       0.013       0.437
   full:        0.331      -0.591       0.284       1.868
molecular quadrupole (traceless):
                xx          xy          yy          xz          yz          zz
 q only:       -6.005      22.749      -1.322       7.185      -2.410       7.327
  q+dip:       -1.919      21.203      -1.275       7.919      -0.816       3.194
   full:       -4.355      21.284      -2.365       6.372      -3.168       6.720

           -------------------------------------------------
          |                Geometry Summary                 |
           -------------------------------------------------

      molecular mass/u    :      252.6292964
   center of mass at/Å    :        1.6584119      -1.8845783      -0.1035975
  moments of inertia/u·Å² :        0.4499600E+03   0.2845206E+04   0.3263060E+04
rotational constants/cm⁻¹ :        0.3746474E-01   0.5924924E-02   0.5166203E-02

 * 21 selected distances

     #   Z          #   Z                                           value/Å
     1   7 N        2   6 C                                       1.3340806
     2   6 C        3   6 C                                       1.3990724
     3   6 C        4   6 C                                       1.3900792
     4   6 C        5   7 N                                       1.3294131
     1   7 N        6   6 C                                       1.3173949
     5   7 N        6   6 C                                       1.3175498
     7   6 C        8   8 O                                       1.1978570
     7   6 C        9   8 O                                       1.3422742
    10   6 C       11   6 C                                       1.3956583
    11   6 C       12   6 C                                       1.3797550
    12   6 C       13   6 C                                       1.3888742
    13   6 C       14   6 C                                       1.3921293
    10   6 C       15   6 C                                       1.3932479
    14   6 C       15   6 C                                       1.3801382
    13   6 C       17  17 Cl                                      1.7210431 (max)
     3   6 C       18   1 H                                       1.0761212
     6   6 C       19   1 H                                       1.0822250
     9   8 O       20   1 H                                       0.9706297 (min)
    11   6 C       21   1 H                                       1.0780197
    12   6 C       22   1 H                                       1.0781281
    15   6 C       23   1 H                                       1.0782424

 * 6 distinct bonds (by element types)

   Z      Z             #   av. dist./Å        max./Å        min./Å
   1 H    6 C           5     1.0785473     1.0822250     1.0761212
   6 C    6 C           8     1.3898693     1.3990724     1.3797550
   6 C    7 N           4     1.3246096     1.3340806     1.3173949
   1 H    8 O           1     0.9706297     0.9706297     0.9706297
   6 C    8 O           2     1.2700656     1.3422742     1.1978570
   6 C   17 Cl          1     1.7210431     1.7210431     1.7210431


optimized geometry written to: xtbopt.xyz


           -------------------------------------------------
          | TOTAL ENERGY              -49.872379888363 Eh   |
          | GRADIENT NORM               0.000556145537 Eh/α |
          | HOMO-LUMO GAP               1.900199259232 eV   |
           -------------------------------------------------

------------------------------------------------------------------------
 * finished run on 2024/12/17 at 14:08:29.083     
------------------------------------------------------------------------
 total:
 * wall-time:     0 d,  0 h,  0 min,  0.303 sec
 *  cpu-time:     0 d,  0 h,  0 min,  2.370 sec
 * ratio c/w:     7.822 speedup
 SCF:
 * wall-time:     0 d,  0 h,  0 min,  0.021 sec
 *  cpu-time:     0 d,  0 h,  0 min,  0.162 sec
 * ratio c/w:     7.900 speedup
 ANC optimizer:
 * wall-time:     0 d,  0 h,  0 min,  0.265 sec
 *  cpu-time:     0 d,  0 h,  0 min,  2.082 sec
 * ratio c/w:     7.858 speedup

