23
 energy: -49.872379888363 gnorm: 0.000556145537 xtb: 6.7.1 (edcfbbe)
N            1.17305789821914        0.35662235953778        0.51027486047644
C            1.07998666147706       -0.92266751162957        0.14349727905736
C           -0.16951147919468       -1.48625528737160       -0.13672861370926
C           -1.27215901676708       -0.64608999443539       -0.03372092500110
N           -1.15690551415130        0.63187699940990        0.31392235914702
C            0.06146168327337        1.06078286383593        0.57384215410224
C           -2.65974570474446       -1.13280341319463       -0.31768079983533
O           -3.62695589691533       -0.43558294675175       -0.43278554174454
O           -2.70759138548069       -2.46914368467259       -0.43432239299825
C            2.33539163217697       -1.67763350828279        0.07318810844904
C            3.45737821703148       -1.19340259847102        0.74737519633257
C            4.65725233787410       -1.87350440878169        0.70881193087533
C            4.76821294399396       -3.05343735860054       -0.01535457313989
C            3.65061922689445       -3.52787331086313       -0.69647019006591
C            2.44405996108932       -2.85893808888998       -0.65746225261726
F            3.73706824683065       -4.66000029715605       -1.41384827647021
Cl           6.25768771717112       -3.91323858346205       -0.08012700160017
H           -0.29374577681623       -2.52161479145551       -0.40249745930013
H            0.15969152773852        2.09718581163810        0.86952879217656
H           -3.61883539772390       -2.75230464522584       -0.61201888025874
H            3.36530178826952       -0.27337141502457        1.30162317308556
H            5.51896494907846       -1.49712866178865        1.23621372860499
H            1.61703538067590       -3.26284752836461       -1.21915067556638
