      -----------------------------------------------------------      
     |                   =====================                   |     
     |                           x T B                           |     
     |                   =====================                   |     
     |                         S. Grimme                         |     
     |          Mulliken Center for Theoretical Chemistry        |     
     |                    University of Bonn                     |     
      -----------------------------------------------------------      

   * xtb version 6.7.1 (edcfbbe) compiled by 'conda@3ef47c1a292c' on 2024-11-25

   xtb is free software: you can redistribute it and/or modify it under
   the terms of the GNU Lesser General Public License as published by
   the Free Software Foundation, either version 3 of the License, or
   (at your option) any later version.
   
   xtb is distributed in the hope that it will be useful,
   but WITHOUT ANY WARRANTY; without even the implied warranty of
   MERCHANTABILITY or FITNESS FOR A PARTICULAR PURPOSE.  See the
   GNU Lesser General Public License for more details.
   
   Cite this work as:
   * C. Bannwarth, E. Caldeweyher, S. Ehlert, A. Hansen, P. Pracht,
     J. Seibert, S. Spicher, S. Grimme, WIREs Comput. Mol. Sci., 2020, 11,
     e01493. DOI: 10.1002/wcms.1493
   
   for GFN2-xTB:
   * C. Bannwarth, S. Ehlert and S. Grimme., J. Chem. Theory Comput., 2019,
     15, 1652-1671. DOI: 10.1021/acs.jctc.8b01176
   for GFN1-xTB:
   * S. Grimme, C. Bannwarth, P. Shushkov, J. Chem. Theory Comput., 2017,
     13, 1989-2009. DOI: 10.1021/acs.jctc.7b00118
   for GFN0-xTB:
   * P. Pracht, E. Caldeweyher, S. Ehlert, S. Grimme, ChemRxiv, 2019, preprint.
     DOI: 10.26434/chemrxiv.8326202.v1
   for GFN-FF:
   * S. Spicher and S. Grimme, Angew. Chem. Int. Ed., 2020, 59, 15665-15673.
     DOI: 10.1002/anie.202004239
   
   for ALPB and GBSA implicit solvation:
   * S. Ehlert, M. Stahn, S. Spicher, S. Grimme, J. Chem. Theory Comput.,
     2021, 17, 4250-4261. DOI: 10.1021/acs.jctc.1c00471
   
   for ddCOSMO and CPCM-X implicit solvation:
   * M. Stahn, S. Ehlert, S. Grimme, J. Phys. Chem. A,
     2023, XX, XXXX-XXXX. DOI: 10.1021/acs.jpca.3c04382
   
   for DFT-D4:
   * E. Caldeweyher, C. Bannwarth and S. Grimme, J. Chem. Phys., 2017,
     147, 034112. DOI: 10.1063/1.4993215
   * E. Caldeweyher, S. Ehlert, A. Hansen, H. Neugebauer, S. Spicher,
     C. Bannwarth and S. Grimme, J. Chem. Phys., 2019, 150, 154122.
     DOI: 10.1063/1.5090222
   * E. Caldeweyher, J.-M. Mewes, S. Ehlert and S. Grimme, Phys. Chem. Chem. Phys.
     2020, 22, 8499-8512. DOI: 10.1039/D0CP00502A
   
   for sTDA-xTB:
   * S. Grimme and C. Bannwarth, J. Chem. Phys., 2016, 145, 054103.
     DOI: 10.1063/1.4959605
   
   in the mass-spec context:
   * V. Asgeirsson, C. Bauer and S. Grimme, Chem. Sci., 2017, 8, 4879.
     DOI: 10.1039/c7sc00601b
   * J. Koopman and S. Grimme, ACS Omega 2019, 4, 12, 15120-15133.
     DOI: 10.1021/acsomega.9b02011
   
   for metadynamics refer to:
   * S. Grimme, J. Chem. Theory Comput., 2019, 155, 2847-2862
     DOI: 10.1021/acs.jctc.9b00143
   
   for SPH calculations refer to:
   * S. Spicher and S. Grimme, J. Chem. Theory Comput., 2021, 17, 1701-1714
     DOI: 10.1021/acs.jctc.0c01306
   
   for ONIOM refer to:
   * C. Plett, A. Katbashev, S. Ehlert, S. Grimme, M. Bursch,
     Phys. Chem. Chem. Phys., 2023, 25, 17860-17868. DOI: 10.1039/D3CP02178E
   
   for DIPRO refer to:
   * J. Kohn, N. Gildemeister, S. Grimme, D. Fazzi, A. Hansen,
     J. Chem. Phys., 2023, just accepted.
   
   for PTB refer to:
   * S. Grimme, M. Mueller, A. Hansen, J. Chem. Phys., 2023, 158, 124111.
     DOI: 10.1063/5.0137838
   
   with help from (in alphabetical order)
   P. Atkinson, C. Bannwarth, F. Bohle, G. Brandenburg, E. Caldeweyher
   M. Checinski, S. Dohm, S. Ehlert, S. Ehrlich, I. Gerasimov, C. Hölzer
   A. Katbashev, J. Kohn, J. Koopman, C. Lavigne, S. Lehtola, F. März, M. Müller,
   F. Musil, H. Neugebauer, J. Pisarek, C. Plett, P. Pracht, F. Pultar,
   J. Seibert, P. Shushkov, S. Spicher, M. Stahn, M. Steiner, T. Strunk,
   J. Stückrath, T. Rose, and J. Unsleber
   
 * started run on 2024/12/17 at 14:07:48.936     
   ID    Z sym.   atoms
    1    7 N      1, 5
    2    6 C      2-4, 6, 7, 10-15
    3    8 O      8, 9
    4    9 F      16
    5    1 H      17-23

           -------------------------------------------------
          |                Calculation Setup                |
           -------------------------------------------------

          program call               : xtb K004.xyz --opt --namespace K004
          calculation namespace      : K004
          coordinate file            : K004.xyz
          omp threads                :                     8


           -------------------------------------------------
          |                 G F N 2 - x T B                 |
           -------------------------------------------------

        Reference                      10.1021/acs.jctc.8b01176
      * Hamiltonian:
        H0-scaling (s, p, d)           1.850000    2.230000    2.230000
        zeta-weighting                 0.500000
      * Dispersion:
        s8                             2.700000
        a1                             0.520000
        a2                             5.000000
        s9                             5.000000
      * Repulsion:
        kExp                           1.500000    1.000000
        rExp                           1.000000
      * Coulomb:
        alpha                          2.000000
        third order                    shell-resolved
        anisotropic                    true
        a3                             3.000000
        a5                             4.000000
        cn-shift                       1.200000
        cn-exp                         4.000000
        max-rad                        5.000000


          ...................................................
          :                      SETUP                      :
          :.................................................:
          :  # basis functions                  71          :
          :  # atomic orbitals                  71          :
          :  # shells                           39          :
          :  # electrons                        80          :
          :  max. iterations                   250          :
          :  Hamiltonian                  GFN2-xTB          :
          :  restarted?                      false          :
          :  GBSA solvation                  false          :
          :  PC potential                    false          :
          :  electronic temp.          300.0000000     K    :
          :  accuracy                    1.0000000          :
          :  -> integral cutoff          0.2500000E+02      :
          :  -> integral neglect         0.1000000E-07      :
          :  -> SCF convergence          0.1000000E-05 Eh   :
          :  -> wf. convergence          0.1000000E-03 e    :
          :  Broyden damping             0.4000000          :
          :  net charge                          0          :
          :  unpaired electrons                  0          :
          ...................................................

 iter      E             dE          RMSdq      gap      omega  full diag
   1    -46.3293207 -0.463293E+02  0.506E+00    2.25       0.0  T
   2    -46.3812498 -0.519291E-01  0.308E+00    2.23       1.0  T
   3    -46.3813752 -0.125457E-03  0.152E+00    1.98       1.0  T
   4    -46.3931062 -0.117310E-01  0.297E-01    1.89       1.0  T
   5    -46.3942961 -0.118995E-02  0.105E-01    1.87       1.0  T
   6    -46.3943933 -0.971465E-04  0.396E-02    1.86       1.0  T
   7    -46.3943974 -0.413818E-05  0.180E-02    1.86       1.2  T
   8    -46.3944014 -0.399032E-05  0.731E-03    1.86       2.9  T
   9    -46.3944018 -0.407488E-06  0.280E-03    1.87       7.4  T
  10    -46.3944019 -0.633408E-07  0.131E-03    1.87      15.9  T
  11    -46.3944019 -0.165481E-07  0.424E-04    1.86      49.2  T
  12    -46.3944019 -0.648868E-09  0.232E-04    1.86      89.8  T

   *** convergence criteria satisfied after 12 iterations ***

         #    Occupation            Energy/Eh            Energy/eV
      -------------------------------------------------------------
         1        2.0000           -0.8284530             -22.5434
       ...           ...                  ...                  ...
        34        2.0000           -0.4629909             -12.5986
        35        2.0000           -0.4501944             -12.2504
        36        2.0000           -0.4429184             -12.0524
        37        2.0000           -0.4314795             -11.7412
        38        2.0000           -0.4244242             -11.5492
        39        2.0000           -0.4221259             -11.4866
        40        2.0000           -0.3883819             -10.5684 (HOMO)
        41                         -0.3198465              -8.7035 (LUMO)
        42                         -0.2873500              -7.8192
        43                         -0.2542376              -6.9182
        44                         -0.2508168              -6.8251
        45                         -0.2243395              -6.1046
       ...                                ...                  ...
        71                          0.6324214              17.2091
      -------------------------------------------------------------
                  HL-Gap            0.0685354 Eh            1.8649 eV
             Fermi-level           -0.3541142 Eh           -9.6359 eV

 SCC (total)                   0 d,  0 h,  0 min,  0.016 sec
 SCC setup                      ...        0 min,  0.000 sec (  0.704%)
 Dispersion                     ...        0 min,  0.000 sec (  1.330%)
 classical contributions        ...        0 min,  0.000 sec (  0.349%)
 integral evaluation            ...        0 min,  0.001 sec (  7.120%)
 iterations                     ...        0 min,  0.012 sec ( 75.044%)
 molecular gradient             ...        0 min,  0.002 sec ( 14.576%)
 printout                       ...        0 min,  0.000 sec (  0.780%)

         :::::::::::::::::::::::::::::::::::::::::::::::::::::
         ::                     SUMMARY                     ::
         :::::::::::::::::::::::::::::::::::::::::::::::::::::
         :: total energy             -45.819661049422 Eh    ::
         :: gradient norm              0.074160362405 Eh/a0 ::
         :: HOMO-LUMO gap              1.864943442628 eV    ::
         ::.................................................::
         :: SCC energy               -46.394445116033 Eh    ::
         :: -> isotropic ES            0.072063102919 Eh    ::
         :: -> anisotropic ES          0.004036769656 Eh    ::
         :: -> anisotropic XC          0.021009574997 Eh    ::
         :: -> dispersion             -0.022914573450 Eh    ::
         :: repulsion energy           0.574784066611 Eh    ::
         :: add. restraining           0.000000000000 Eh    ::
         :: total charge               0.000000000000 e     ::
         :::::::::::::::::::::::::::::::::::::::::::::::::::::

      ----------------------------------------------------------- 
     |                   =====================                   |
     |                        A N C O P T                        |
     |                   =====================                   |
     |               Approximate Normal Coordinate               |
     |                Rational Function Optimizer                |
      ----------------------------------------------------------- 
      ----------------------------------------------------------- 
     |                   =====================                   |
     |                        A N C O P T                        |
     |                   =====================                   |
     |               Approximate Normal Coordinate               |
     |                Rational Function Optimizer                |
      ----------------------------------------------------------- 

          ...................................................
          :                      SETUP                      :
          :.................................................:
          :   optimization level            normal          :
          :   max. optcycles                   200          :
          :   ANC micro-cycles                  20          :
          :   degrees of freedom                63          :
          :.................................................:
          :   RF solver                   davidson          :
          :   write xtbopt.log                true          :
          :   linear?                        false          :
          :   energy convergence         0.5000000E-05 Eh   :
          :   grad. convergence          0.1000000E-02 Eh/α :
          :   maxmium RF displ.          1.0000000          :
          :   Hlow (freq-cutoff)         0.1000000E-01      :
          :   Hmax (freq-cutoff)         5.0000000          :
          :   S6 in model hess.         20.0000000          :
          ...................................................

generating ANC from exact Hessian ...
Using Lindh-Hessian (1995)
 Shifting diagonal of input Hessian by    8.8727084173304341E-003
 Lowest  eigenvalues of input Hessian
    0.000000    0.000000    0.000000    0.000000    0.000000    0.000000
    0.010000    0.010775    0.011301    0.014944    0.017019    0.020846
    0.023254    0.026584    0.030419    0.033546    0.038867    0.039414
 Highest eigenvalues
    1.956432    1.993880    2.067985    2.074699    2.122374    2.330572


........................................................................
.............................. CYCLE    1 ..............................
........................................................................

 iter      E             dE          RMSdq      gap      omega  full diag
   1    -46.3944019 -0.463944E+02  0.755E-05    1.86       0.0  T
   2    -46.3944019 -0.986233E-11  0.478E-05    1.86     435.9  T
   3    -46.3944019  0.104450E-11  0.241E-05    1.86     863.9  T
     SCC iter.                  ...        0 min,  0.003 sec
     gradient                   ...        0 min,  0.002 sec
 * total energy  :   -45.8196610 Eh     change       -0.4594014E-09 Eh
   gradient norm :     0.0741612 Eh/α   predicted     0.0000000E+00 (-100.00%)
   displ. norm   :     0.1619586 α      lambda       -0.6611319E-02
   maximum displ.:     0.0729172 α      in ANC's #11, #31, #32, ...

........................................................................
.............................. CYCLE    2 ..............................
........................................................................

 iter      E             dE          RMSdq      gap      omega  full diag
   1    -46.4260506 -0.464261E+02  0.157E-01    1.92       0.0  T
   2    -46.4261227 -0.721032E-04  0.106E-01    1.92       1.0  T
   3    -46.4261235 -0.785893E-06  0.530E-02    1.91       1.0  T
   4    -46.4261471 -0.236018E-04  0.138E-02    1.91       1.5  T
   5    -46.4261492 -0.212640E-05  0.386E-03    1.91       5.4  T
   6    -46.4261493 -0.123548E-06  0.207E-03    1.91      10.1  T
   7    -46.4261493 -0.257861E-07  0.845E-04    1.91      24.7  T
   8    -46.4261494 -0.105672E-07  0.285E-04    1.91      73.1  T
     SCC iter.                  ...        0 min,  0.006 sec
     gradient                   ...        0 min,  0.002 sec
 * total energy  :   -45.8240897 Eh     change       -0.4428656E-02 Eh
   gradient norm :     0.0251073 Eh/α   predicted    -0.3392601E-02 ( -23.39%)
   displ. norm   :     0.1461354 α      lambda       -0.1573322E-02
   maximum displ.:     0.0658423 α      in ANC's #1, #11, #4, ...

........................................................................
.............................. CYCLE    3 ..............................
........................................................................

 iter      E             dE          RMSdq      gap      omega  full diag
   1    -46.4380199 -0.464380E+02  0.109E-01    1.93       0.0  T
   2    -46.4380400 -0.201532E-04  0.701E-02    1.93       1.0  T
   3    -46.4380322  0.779166E-05  0.351E-02    1.93       1.0  T
   4    -46.4380486 -0.163604E-04  0.685E-03    1.93       3.0  T
   5    -46.4380490 -0.463057E-06  0.255E-03    1.93       8.2  T
   6    -46.4380491 -0.399401E-07  0.133E-03    1.93      15.6  T
   7    -46.4380491 -0.976407E-08  0.523E-04    1.93      39.8  T
   8    -46.4380491 -0.400226E-08  0.213E-04    1.93      97.7  T
     SCC iter.                  ...        0 min,  0.006 sec
     gradient                   ...        0 min,  0.002 sec
 * total energy  :   -45.8250155 Eh     change       -0.9257482E-03 Eh
   gradient norm :     0.0077270 Eh/α   predicted    -0.8035344E-03 ( -13.20%)
   displ. norm   :     0.1168822 α      lambda       -0.2758926E-03
   maximum displ.:     0.0761085 α      in ANC's #1, #2, #4, ...

........................................................................
.............................. CYCLE    4 ..............................
........................................................................

 iter      E             dE          RMSdq      gap      omega  full diag
   1    -46.4377776 -0.464378E+02  0.649E-02    1.94       0.0  T
   2    -46.4377793 -0.172411E-05  0.379E-02    1.93       1.0  T
   3    -46.4377774  0.195618E-05  0.120E-02    1.93       1.7  T
   4    -46.4377799 -0.256863E-05  0.232E-03    1.93       9.0  T
   5    -46.4377800 -0.323312E-07  0.118E-03    1.93      17.7  T
   6    -46.4377800 -0.936713E-08  0.477E-04    1.93      43.8  T
   7    -46.4377800 -0.816016E-09  0.205E-04    1.93     101.6  T
     SCC iter.                  ...        0 min,  0.005 sec
     gradient                   ...        0 min,  0.002 sec
 * total energy  :   -45.8252265 Eh     change       -0.2110412E-03 Eh
   gradient norm :     0.0062365 Eh/α   predicted    -0.1398318E-03 ( -33.74%)
   displ. norm   :     0.2037868 α      lambda       -0.2740302E-03
   maximum displ.:     0.1358874 α      in ANC's #1, #2, #4, ...

........................................................................
.............................. CYCLE    5 ..............................
........................................................................

 iter      E             dE          RMSdq      gap      omega  full diag
   1    -46.4355944 -0.464356E+02  0.108E-01    1.94       0.0  T
   2    -46.4355976 -0.315522E-05  0.631E-02    1.93       1.0  T
   3    -46.4355947  0.287961E-05  0.152E-02    1.93       1.4  T
   4    -46.4355987 -0.397683E-05  0.307E-03    1.93       6.8  T
   5    -46.4355987 -0.382536E-07  0.158E-03    1.93      13.2  T
   6    -46.4355987 -0.198486E-07  0.564E-04    1.93      36.9  T
   7    -46.4355987 -0.158701E-08  0.263E-04    1.93      79.3  T
     SCC iter.                  ...        0 min,  0.009 sec
     gradient                   ...        0 min,  0.002 sec
 * total energy  :   -45.8254125 Eh     change       -0.1859551E-03 Eh
   gradient norm :     0.0040814 Eh/α   predicted    -0.1427056E-03 ( -23.26%)
   displ. norm   :     0.1698846 α      lambda       -0.1274054E-03
   maximum displ.:     0.1185066 α      in ANC's #1, #2, #4, ...

........................................................................
.............................. CYCLE    6 ..............................
........................................................................

 iter      E             dE          RMSdq      gap      omega  full diag
   1    -46.4347320 -0.464347E+02  0.898E-02    1.94       0.0  T
   2    -46.4347334 -0.141483E-05  0.523E-02    1.93       1.0  T
   3    -46.4347320  0.138519E-05  0.990E-03    1.93       2.1  T
   4    -46.4347339 -0.192686E-05  0.211E-03    1.93       9.9  T
   5    -46.4347339 -0.154322E-07  0.984E-04    1.93      21.2  T
   6    -46.4347339 -0.691368E-08  0.342E-04    1.93      61.0  T
     SCC iter.                  ...        0 min,  0.005 sec
     gradient                   ...        0 min,  0.002 sec
 * total energy  :   -45.8255151 Eh     change       -0.1026514E-03 Eh
   gradient norm :     0.0040854 Eh/α   predicted    -0.6555528E-04 ( -36.14%)
   displ. norm   :     0.1968649 α      lambda       -0.1446996E-03
   maximum displ.:     0.1342493 α      in ANC's #1, #2, #3, ...

........................................................................
.............................. CYCLE    7 ..............................
........................................................................

 iter      E             dE          RMSdq      gap      omega  full diag
   1    -46.4347219 -0.464347E+02  0.105E-01    1.93       0.0  T
   2    -46.4347233 -0.138796E-05  0.610E-02    1.93       1.0  T
   3    -46.4347221  0.118273E-05  0.870E-03    1.93       2.4  T
   4    -46.4347239 -0.174080E-05  0.220E-03    1.93       9.5  T
   5    -46.4347239 -0.164866E-07  0.891E-04    1.93      23.4  T
   6    -46.4347239 -0.571140E-08  0.336E-04    1.93      62.0  T
     SCC iter.                  ...        0 min,  0.005 sec
     gradient                   ...        0 min,  0.002 sec
 * total energy  :   -45.8256403 Eh     change       -0.1251527E-03 Eh
   gradient norm :     0.0051293 Eh/α   predicted    -0.7515504E-04 ( -39.95%)
   displ. norm   :     0.2921332 α      lambda       -0.2105183E-03
   maximum displ.:     0.2000545 α      in ANC's #1, #2, #3, ...

........................................................................
.............................. CYCLE    8 ..............................
........................................................................

 iter      E             dE          RMSdq      gap      omega  full diag
   1    -46.4349895 -0.464350E+02  0.155E-01    1.93       0.0  T
   2    -46.4349921 -0.260006E-05  0.900E-02    1.93       1.0  T
   3    -46.4349907  0.139094E-05  0.103E-02    1.93       2.0  T
   4    -46.4349931 -0.243366E-05  0.317E-03    1.93       6.6  T
   5    -46.4349931 -0.329027E-07  0.112E-03    1.93      18.6  T
   6    -46.4349931 -0.139392E-07  0.434E-04    1.93      48.0  T
   7    -46.4349931 -0.205564E-08  0.207E-04    1.93     100.7  T
     SCC iter.                  ...        0 min,  0.012 sec
     gradient                   ...        0 min,  0.002 sec
 * total energy  :   -45.8258159 Eh     change       -0.1756336E-03 Eh
   gradient norm :     0.0062826 Eh/α   predicted    -0.1142458E-03 ( -34.95%)
   displ. norm   :     0.3503043 α      lambda       -0.2172011E-03
   maximum displ.:     0.2455834 α      in ANC's #1, #2, #3, ...

........................................................................
.............................. CYCLE    9 ..............................
........................................................................

 iter      E             dE          RMSdq      gap      omega  full diag
   1    -46.4348365 -0.464348E+02  0.184E-01    1.92       0.0  T
   2    -46.4348398 -0.328071E-05  0.107E-01    1.92       1.0  T
   3    -46.4348381  0.164356E-05  0.119E-02    1.92       1.7  T
   4    -46.4348411 -0.302229E-05  0.369E-03    1.92       5.7  T
   5    -46.4348412 -0.341546E-07  0.137E-03    1.92      15.2  T
   6    -46.4348412 -0.250932E-07  0.476E-04    1.92      43.8  T
   7    -46.4348412 -0.151633E-08  0.241E-04    1.92      86.4  T
     SCC iter.                  ...        0 min,  0.005 sec
     gradient                   ...        0 min,  0.002 sec
 * total energy  :   -45.8259892 Eh     change       -0.1733205E-03 Eh
   gradient norm :     0.0059231 Eh/α   predicted    -0.1219313E-03 ( -29.65%)
   displ. norm   :     0.3040349 α      lambda       -0.1649180E-03
   maximum displ.:     0.2266327 α      in ANC's #1, #2, #3, ...

........................................................................
.............................. CYCLE   10 ..............................
........................................................................

 iter      E             dE          RMSdq      gap      omega  full diag
   1    -46.4353955 -0.464354E+02  0.159E-01    1.92       0.0  T
   2    -46.4353977 -0.220339E-05  0.926E-02    1.92       1.0  T
   3    -46.4353963  0.136360E-05  0.105E-02    1.92       2.0  T
   4    -46.4353987 -0.236150E-05  0.309E-03    1.92       6.8  T
   5    -46.4353987 -0.170636E-07  0.120E-03    1.92      17.4  T
   6    -46.4353987 -0.200800E-07  0.383E-04    1.92      54.4  T
   7    -46.4353987 -0.548098E-09  0.204E-04    1.92     102.4  T
     SCC iter.                  ...        0 min,  0.005 sec
     gradient                   ...        0 min,  0.002 sec
 * total energy  :   -45.8261184 Eh     change       -0.1292404E-03 Eh
   gradient norm :     0.0037799 Eh/α   predicted    -0.9008268E-04 ( -30.30%)
   displ. norm   :     0.2489748 α      lambda       -0.1107505E-03
   maximum displ.:     0.1954990 α      in ANC's #1, #3, #2, ...

........................................................................
.............................. CYCLE   11 ..............................
........................................................................

 iter      E             dE          RMSdq      gap      omega  full diag
   1    -46.4362019 -0.464362E+02  0.128E-01    1.92       0.0  T
   2    -46.4362032 -0.125436E-05  0.750E-02    1.92       1.0  T
   3    -46.4362017  0.141816E-05  0.935E-03    1.92       2.2  T
   4    -46.4362038 -0.208437E-05  0.238E-03    1.92       8.8  T
   5    -46.4362038 -0.737833E-08  0.848E-04    1.92      24.6  T
   6    -46.4362038 -0.877231E-08  0.307E-04    1.92      67.9  T
     SCC iter.                  ...        0 min,  0.005 sec
     gradient                   ...        0 min,  0.002 sec
 * total energy  :   -45.8262062 Eh     change       -0.8773609E-04 Eh
   gradient norm :     0.0020111 Eh/α   predicted    -0.5880869E-04 ( -32.97%)
   displ. norm   :     0.2049868 α      lambda       -0.7427290E-04
   maximum displ.:     0.1685948 α      in ANC's #1, #3, #4, ...

........................................................................
.............................. CYCLE   12 ..............................
........................................................................

 iter      E             dE          RMSdq      gap      omega  full diag
   1    -46.4366520 -0.464367E+02  0.103E-01    1.92       0.0  T
   2    -46.4366527 -0.728778E-06  0.600E-02    1.92       1.0  T
   3    -46.4366519  0.871697E-06  0.720E-03    1.92       2.9  T
   4    -46.4366531 -0.128124E-05  0.183E-03    1.92      11.4  T
   5    -46.4366531 -0.268209E-08  0.649E-04    1.92      32.1  T
   6    -46.4366531 -0.588296E-08  0.237E-04    1.92      88.1  T
     SCC iter.                  ...        0 min,  0.005 sec
     gradient                   ...        0 min,  0.002 sec
 * total energy  :   -45.8262682 Eh     change       -0.6200013E-04 Eh
   gradient norm :     0.0022558 Eh/α   predicted    -0.3870082E-04 ( -37.58%)
   displ. norm   :     0.1623503 α      lambda       -0.5599178E-04
   maximum displ.:     0.1382220 α      in ANC's #1, #3, #5, ...

........................................................................
.............................. CYCLE   13 ..............................
........................................................................

 iter      E             dE          RMSdq      gap      omega  full diag
   1    -46.4370064 -0.464370E+02  0.781E-02    1.92       0.0  T
   2    -46.4370068 -0.377471E-06  0.458E-02    1.92       1.0  T
   3    -46.4370061  0.708616E-06  0.590E-03    1.92       3.5  T
   4    -46.4370070 -0.950708E-06  0.135E-03    1.92      15.5  T
   5    -46.4370070 -0.402075E-09  0.589E-04    1.92      35.4  T
   6    -46.4370070 -0.429394E-08  0.164E-04    1.92     126.9  T
     SCC iter.                  ...        0 min,  0.005 sec
     gradient                   ...        0 min,  0.002 sec
 * total energy  :   -45.8263170 Eh     change       -0.4883664E-04 Eh
   gradient norm :     0.0025790 Eh/α   predicted    -0.2874595E-04 ( -41.14%)
   displ. norm   :     0.1460054 α      lambda       -0.4935568E-04
   maximum displ.:     0.1276363 α      in ANC's #1, #3, #5, ...

........................................................................
.............................. CYCLE   14 ..............................
........................................................................

 iter      E             dE          RMSdq      gap      omega  full diag
   1    -46.4370297 -0.464370E+02  0.670E-02    1.92       0.0  T
   2    -46.4370301 -0.328605E-06  0.393E-02    1.92       1.0  T
   3    -46.4370295  0.546046E-06  0.513E-03    1.92       4.1  T
   4    -46.4370303 -0.736825E-06  0.121E-03    1.92      17.3  T
   5    -46.4370303 -0.240344E-08  0.645E-04    1.92      32.3  T
   6    -46.4370303 -0.365591E-08  0.190E-04    1.92     109.6  T
     SCC iter.                  ...        0 min,  0.005 sec
     gradient                   ...        0 min,  0.002 sec
 * total energy  :   -45.8263605 Eh     change       -0.4348186E-04 Eh
   gradient norm :     0.0022474 Eh/α   predicted    -0.2520920E-04 ( -42.02%)
   displ. norm   :     0.1278075 α      lambda       -0.4274469E-04
   maximum displ.:     0.1134129 α      in ANC's #1, #3, #2, ...

........................................................................
.............................. CYCLE   15 ..............................
........................................................................

 iter      E             dE          RMSdq      gap      omega  full diag
   1    -46.4370175 -0.464370E+02  0.583E-02    1.92       0.0  T
   2    -46.4370178 -0.238501E-06  0.343E-02    1.92       1.0  T
   3    -46.4370174  0.419058E-06  0.443E-03    1.92       4.7  T
   4    -46.4370179 -0.560418E-06  0.108E-03    1.92      19.2  T
   5    -46.4370179 -0.318337E-08  0.590E-04    1.92      35.3  T
   6    -46.4370179 -0.262367E-08  0.162E-04    1.92     128.6  T
     SCC iter.                  ...        0 min,  0.005 sec
     gradient                   ...        0 min,  0.002 sec
 * total energy  :   -45.8263979 Eh     change       -0.3738579E-04 Eh
   gradient norm :     0.0018530 Eh/α   predicted    -0.2172214E-04 ( -41.90%)
   displ. norm   :     0.1789623 α      lambda       -0.3857849E-04
   maximum displ.:     0.1595690 α      in ANC's #1, #2, #3, ...

........................................................................
.............................. CYCLE   16 ..............................
........................................................................

 iter      E             dE          RMSdq      gap      omega  full diag
   1    -46.4369297 -0.464369E+02  0.806E-02    1.92       0.0  T
   2    -46.4369303 -0.616111E-06  0.472E-02    1.92       1.0  T
   3    -46.4369298  0.480439E-06  0.549E-03    1.92       3.8  T
   4    -46.4369306 -0.774992E-06  0.169E-03    1.92      12.3  T
   5    -46.4369306 -0.684286E-08  0.780E-04    1.92      26.7  T
   6    -46.4369306 -0.658157E-08  0.295E-04    1.92      70.7  T
     SCC iter.                  ...        0 min,  0.005 sec
     gradient                   ...        0 min,  0.002 sec
 * total energy  :   -45.8264450 Eh     change       -0.4708326E-04 Eh
   gradient norm :     0.0017688 Eh/α   predicted    -0.1956513E-04 ( -58.45%)
   displ. norm   :     0.1522151 α      lambda       -0.2910077E-04
   maximum displ.:     0.1355066 α      in ANC's #1, #2, #4, ...

........................................................................
.............................. CYCLE   17 ..............................
........................................................................

 iter      E             dE          RMSdq      gap      omega  full diag
   1    -46.4366553 -0.464367E+02  0.719E-02    1.92       0.0  T
   2    -46.4366558 -0.486181E-06  0.421E-02    1.92       1.0  T
   3    -46.4366557  0.102967E-06  0.378E-03    1.92       5.5  T
   4    -46.4366560 -0.313170E-06  0.159E-03    1.92      13.1  T
   5    -46.4366560 -0.154122E-07  0.585E-04    1.92      35.7  T
   6    -46.4366560 -0.240528E-08  0.239E-04    1.92      87.1  T
     SCC iter.                  ...        0 min,  0.005 sec
     gradient                   ...        0 min,  0.002 sec
 * total energy  :   -45.8264795 Eh     change       -0.3451047E-04 Eh
   gradient norm :     0.0015210 Eh/α   predicted    -0.1470230E-04 ( -57.40%)
   displ. norm   :     0.1456165 α      lambda       -0.2337377E-04
   maximum displ.:     0.1296704 α      in ANC's #1, #2, #4, ...

........................................................................
.............................. CYCLE   18 ..............................
........................................................................

 iter      E             dE          RMSdq      gap      omega  full diag
   1    -46.4366684 -0.464367E+02  0.696E-02    1.92       0.0  T
   2    -46.4366689 -0.570630E-06  0.406E-02    1.92       1.0  T
   3    -46.4366689  0.295380E-09  0.375E-03    1.92       5.6  T
   4    -46.4366691 -0.212185E-06  0.161E-03    1.92      13.0  T
   5    -46.4366692 -0.144102E-07  0.595E-04    1.92      35.0  T
   6    -46.4366692 -0.162897E-08  0.255E-04    1.92      81.8  T
     SCC iter.                  ...        0 min,  0.005 sec
     gradient                   ...        0 min,  0.002 sec
 * total energy  :   -45.8265058 Eh     change       -0.2630212E-04 Eh
   gradient norm :     0.0011954 Eh/α   predicted    -0.1179949E-04 ( -55.14%)
   displ. norm   :     0.1323243 α      lambda       -0.1511519E-04
   maximum displ.:     0.1192318 α      in ANC's #1, #2, #4, ...

........................................................................
.............................. CYCLE   19 ..............................
........................................................................

 iter      E             dE          RMSdq      gap      omega  full diag
   1    -46.4366219 -0.464366E+02  0.651E-02    1.92       0.0  T
   2    -46.4366225 -0.597016E-06  0.381E-02    1.92       1.0  T
   3    -46.4366224  0.105606E-06  0.385E-03    1.92       5.4  T
   4    -46.4366227 -0.308121E-06  0.156E-03    1.92      13.3  T
   5    -46.4366227 -0.156238E-07  0.654E-04    1.92      31.9  T
   6    -46.4366227 -0.408527E-08  0.272E-04    1.92      76.6  T
     SCC iter.                  ...        0 min,  0.005 sec
     gradient                   ...        0 min,  0.002 sec
 * total energy  :   -45.8265184 Eh     change       -0.1257140E-04 Eh
   gradient norm :     0.0016093 Eh/α   predicted    -0.7618501E-05 ( -39.40%)
   displ. norm   :     0.0760164 α      lambda       -0.8227980E-05
   maximum displ.:     0.0708434 α      in ANC's #1, #4, #2, ...

........................................................................
.............................. CYCLE   20 ..............................
........................................................................

 iter      E             dE          RMSdq      gap      omega  full diag
   1    -46.4364722 -0.464365E+02  0.362E-02    1.92       0.0  T
   2    -46.4364725 -0.266147E-06  0.212E-02    1.92       1.0  T
   3    -46.4364723  0.239754E-06  0.441E-03    1.92       4.7  T
   4    -46.4364726 -0.336810E-06  0.838E-04    1.92      24.9  T
   5    -46.4364726 -0.203352E-08  0.410E-04    1.92      50.9  T
     SCC iter.                  ...        0 min,  0.004 sec
     gradient                   ...        0 min,  0.002 sec
 * total energy  :   -45.8265251 Eh     change       -0.6771126E-05 Eh
   gradient norm :     0.0009841 Eh/α   predicted    -0.4126698E-05 ( -39.05%)
   displ. norm   :     0.0542483 α      lambda       -0.3956321E-05
   maximum displ.:     0.0507630 α      in ANC's #1, #4, #32, ...
 * RMSD in coord.:     0.6475979 α      energy gain  -0.6864079E-02 Eh

generating ANC from exact Hessian ...
Using Lindh-Hessian (1995)
 Shifting diagonal of input Hessian by    8.8752370192229316E-003
 Lowest  eigenvalues of input Hessian
    0.000000    0.000000    0.000000    0.000000    0.000000    0.000000
    0.010000    0.010963    0.011573    0.014822    0.016509    0.021888
    0.024360    0.027719    0.031480    0.036070    0.039425    0.039907
 Highest eigenvalues
    1.969401    2.042014    2.113988    2.142012    2.241364    2.430207


........................................................................
.............................. CYCLE   21 ..............................
........................................................................

 iter      E             dE          RMSdq      gap      omega  full diag
   1    -46.4367262 -0.464367E+02  0.269E-02    1.92       0.0  T
   2    -46.4367263 -0.124893E-06  0.158E-02    1.92       1.3  T
   3    -46.4367262  0.122297E-06  0.227E-03    1.92       9.2  T
   4    -46.4367264 -0.148736E-06  0.623E-04    1.92      33.5  T
   5    -46.4367264 -0.705269E-08  0.267E-04    1.92      78.2  T
     SCC iter.                  ...        0 min,  0.004 sec
     gradient                   ...        0 min,  0.002 sec
 * total energy  :   -45.8265280 Eh     change       -0.2840383E-05 Eh
   gradient norm :     0.0014118 Eh/α   predicted     0.0000000E+00 (-100.00%)
   displ. norm   :     0.0190701 α      lambda       -0.2626378E-05
   maximum displ.:     0.0148340 α      in ANC's #2, #1, #4, ...

........................................................................
.............................. CYCLE   22 ..............................
........................................................................

 iter      E             dE          RMSdq      gap      omega  full diag
   1    -46.4368610 -0.464369E+02  0.113E-02    1.92       0.0  T
   2    -46.4368611 -0.728482E-07  0.663E-03    1.92       3.1  T
   3    -46.4368611  0.237780E-07  0.139E-03    1.92      15.0  T
   4    -46.4368611 -0.312389E-07  0.404E-04    1.92      51.6  T
   5    -46.4368611 -0.282738E-08  0.152E-04    1.92     137.6  T
     SCC iter.                  ...        0 min,  0.004 sec
     gradient                   ...        0 min,  0.002 sec
 * total energy  :   -45.8265310 Eh     change       -0.3052946E-05 Eh
   gradient norm :     0.0005859 Eh/α   predicted    -0.2119344E-05 ( -30.58%)
   displ. norm   :     0.0188954 α      lambda       -0.1891331E-05
   maximum displ.:     0.0150872 α      in ANC's #2, #1, #5, ...

   *** GEOMETRY OPTIMIZATION CONVERGED AFTER 22 ITERATIONS ***

------------------------------------------------------------------------
 total energy gain   :        -0.0068700 Eh       -4.3110 kcal/mol
 total RMSD          :         0.6497276 a0        0.3438 Å
 total power (kW/mol):        -0.8198686 (step)  -89.3521 (real)
------------------------------------------------------------------------

 ANCopt (total)                0 d,  0 h,  0 min,  0.202 sec
 optimizer setup                ...        0 min,  0.000 sec (  0.034%)
 model hessian                  ...        0 min,  0.006 sec (  2.879%)
 ANC generation                 ...        0 min,  0.001 sec (  0.358%)
 coordinate transformation      ...        0 min,  0.000 sec (  0.100%)
 single point calculation       ...        0 min,  0.189 sec ( 93.524%)
 optimization log               ...        0 min,  0.002 sec (  1.140%)
 hessian update                 ...        0 min,  0.002 sec (  0.818%)
 rational function              ...        0 min,  0.001 sec (  0.691%)

================
 final structure:
================
23
 xtb: 6.7.1 (edcfbbe)
N            1.17253470997711        0.37152119586904        0.47678336408263
C            1.08042654955097       -0.91622373566266        0.14374093748858
C           -0.16837705114405       -1.48909724722048       -0.12048213044993
C           -1.27167095802195       -0.64783566325905       -0.04071963455881
N           -1.15759208761349        0.63961096286463        0.27180690417572
C            0.06016377363389        1.07602610950818        0.52185708502712
C           -2.65871973177921       -1.14301446393834       -0.30873072760323
O           -3.62628482636031       -0.45049142325740       -0.45035152133790
O           -2.70707356062465       -2.48311885621091       -0.38471816089400
C            2.33535575172132       -1.67491186841275        0.08984967444815
C            2.46442891917544       -2.83600305785240       -0.67078071150259
C            3.66631588000046       -3.51978151039052       -0.70503616395587
C            4.75533636819251       -3.06724030928424        0.02004848108648
C            4.61534300112226       -1.90994574552827        0.76707253680697
C            3.43120134084818       -1.20364369237668        0.81089903183780
F            5.67060201778488       -1.46041657187464        1.47348795901298
H           -0.28852770460420       -2.53238594136200       -0.35639984727499
H            0.15739398686093        2.12034580825661        0.78873570173021
H           -3.61878296775087       -2.76970600225099       -0.55419627194616
H            1.63367945759571       -3.19612772981131       -1.25734877695348
H            3.75837608680157       -4.41404877073407       -1.30220920683527
H            5.69879351029514       -3.58935304661900        0.00893302756807
H            3.34603753433911       -0.30052844045305        1.39275845004719

 Bond Distances (Angstroems)
 ---------------------------
N1-C2=1.3333         N1-C6=1.3175         C2-N1=1.3333         C2-C3=1.3991         C2-C10=1.4674        C3-C2=1.3991         
C3-C4=1.3897         C3-H17=1.0764        C4-C3=1.3897         C4-N5=1.3297         C4-C7=1.4970         N5-C4=1.3297         
N5-C6=1.3175         C6-N1=1.3175         C6-N5=1.3175         C6-H18=1.0823        C7-C4=1.4970         C7-O8=1.1983         
C7-O9=1.3431         O8-C7=1.1983         O9-C7=1.3431         O9-H19=0.9706        C10-C2=1.4674        C10-C11=1.3940       
C10-C15=1.3939       C11-C10=1.3940       C11-C12=1.3832       C11-H20=1.0788       C12-C11=1.3832       C12-C13=1.3844       
C12-H21=1.0793       C13-C12=1.3844       C13-C14=1.3845       C13-H22=1.0783       C14-C13=1.3845       C14-C15=1.3795       
C14-F16=1.3471       C15-C10=1.3939       C15-C14=1.3795       C15-H23=1.0777       F16-C14=1.3471       H17-C3=1.0764        
H18-C6=1.0823        H19-O9=0.9706        H20-C11=1.0788       H21-C12=1.0793       H22-C13=1.0783       H23-C15=1.0777       
 C  H  Rav=1.0788 sigma=0.0018  Rmin=1.0764  Rmax=1.0823     6
 C  C  Rav=1.4073 sigma=0.0385  Rmin=1.3795  Rmax=1.4970    10
 N  C  Rav=1.3245 sigma=0.0071  Rmin=1.3175  Rmax=1.3333     4
 O  H  Rav=0.9706 sigma=0.0000  Rmin=0.9706  Rmax=0.9706     1
 O  C  Rav=1.2707 sigma=0.0724  Rmin=1.1983  Rmax=1.3431     2
 F  C  Rav=1.3471 sigma=0.0000  Rmin=1.3471  Rmax=1.3471     1

 selected bond angles (degree)
 --------------------
C6-N1-C2=117.82                C3-C2-N1=120.28                C10-C2-N1=116.71               C10-C2-C3=123.00               
C4-C3-C2=116.74                H17-C3-C2=122.54               H17-C3-C4=120.71               N5-C4-C3=122.10                
C7-C4-C3=121.67                C7-C4-N5=116.22                C6-N5-C4=116.40                N5-C6-N1=126.64                
H18-C6-N1=116.65               H18-C6-N5=116.71               O8-C7-C4=125.32                O9-C7-C4=111.93                
O9-C7-O8=122.74                H19-O9-C7=109.77               C11-C10-C2=121.99              C15-C10-C2=118.59              
C15-C10-C11=119.41             

 selected dihedral angles (degree)
 ---------------------------------
C3-C2-N1-C6=358.79            C10-C2-N1-C6=179.49           C4-C3-C2-N1=  1.16            C4-C3-C2-C10=180.42           
H17-C3-C2-N1=182.33           H17-C3-C2-C10=  1.59          N5-C4-C3-C2=359.94            N5-C4-C3-H17=178.78           
C7-C4-C3-C2=179.68            C7-C4-C3-H17=358.53           C6-N5-C4-C3=359.08            C6-N5-C4-C7=179.32            
N5-C6-N1-C2=  0.14            H18-C6-N1-C2=180.33           N1-C6-N5-C4=  0.92            H18-C6-N5-C4=180.73           
O8-C7-C4-C3=191.47            O8-C7-C4-N5= 11.22            O9-C7-C4-C3= 11.06            O9-C7-C4-N5=190.82            
H19-O9-C7-C4=179.71           H19-O9-C7-O8=359.32           C11-C10-C2-N1=203.23          C11-C10-C2-C3= 23.95          
C15-C10-C2-N1= 22.41          C15-C10-C2-C3=203.13          
           -------------------------------------------------
          |                Final Singlepoint                |
           -------------------------------------------------

          ...................................................
          :                      SETUP                      :
          :.................................................:
          :  # basis functions                  71          :
          :  # atomic orbitals                  71          :
          :  # shells                           39          :
          :  # electrons                        80          :
          :  max. iterations                   250          :
          :  Hamiltonian                  GFN2-xTB          :
          :  restarted?                      false          :
          :  GBSA solvation                  false          :
          :  PC potential                    false          :
          :  electronic temp.          300.0000000     K    :
          :  accuracy                    1.0000000          :
          :  -> integral cutoff          0.2500000E+02      :
          :  -> integral neglect         0.1000000E-07      :
          :  -> SCF convergence          0.1000000E-05 Eh   :
          :  -> wf. convergence          0.1000000E-03 e    :
          :  Broyden damping             0.4000000          :
          :  net charge                          0          :
          :  unpaired electrons                  0          :
          ...................................................

 iter      E             dE          RMSdq      gap      omega  full diag
   1    -46.4368611 -0.464369E+02  0.812E-05    1.92       0.0  T
   2    -46.4368611 -0.195968E-10  0.475E-05    1.92     438.7  T
   3    -46.4368611 -0.786571E-11  0.312E-05    1.92     668.0  T

   *** convergence criteria satisfied after 3 iterations ***

         #    Occupation            Energy/Eh            Energy/eV
      -------------------------------------------------------------
         1        2.0000           -0.8252892             -22.4573
       ...           ...                  ...                  ...
        34        2.0000           -0.4613830             -12.5549
        35        2.0000           -0.4502029             -12.2506
        36        2.0000           -0.4412568             -12.0072
        37        2.0000           -0.4310645             -11.7299
        38        2.0000           -0.4245634             -11.5530
        39        2.0000           -0.4174745             -11.3601
        40        2.0000           -0.3839932             -10.4490 (HOMO)
        41                         -0.3136014              -8.5335 (LUMO)
        42                         -0.2888904              -7.8611
        43                         -0.2508589              -6.8262
        44                         -0.2429351              -6.6106
        45                         -0.2129700              -5.7952
       ...                                ...                  ...
        71                          0.6839741              18.6119
      -------------------------------------------------------------
                  HL-Gap            0.0703918 Eh            1.9155 eV
             Fermi-level           -0.3487973 Eh           -9.4913 eV

 SCC (total)                   0 d,  0 h,  0 min,  0.006 sec
 SCC setup                      ...        0 min,  0.000 sec (  1.213%)
 Dispersion                     ...        0 min,  0.000 sec (  1.488%)
 classical contributions        ...        0 min,  0.000 sec (  0.258%)
 integral evaluation            ...        0 min,  0.001 sec ( 14.583%)
 iterations                     ...        0 min,  0.002 sec ( 41.975%)
 molecular gradient             ...        0 min,  0.002 sec ( 38.939%)
 printout                       ...        0 min,  0.000 sec (  1.297%)

         :::::::::::::::::::::::::::::::::::::::::::::::::::::
         ::                     SUMMARY                     ::
         :::::::::::::::::::::::::::::::::::::::::::::::::::::
         :: total energy             -45.826531021810 Eh    ::
         :: gradient norm              0.000585834853 Eh/a0 ::
         :: HOMO-LUMO gap              1.915458512386 eV    ::
         ::.................................................::
         :: SCC energy               -46.436934663666 Eh    ::
         :: -> isotropic ES            0.071727781152 Eh    ::
         :: -> anisotropic ES          0.003224381865 Eh    ::
         :: -> anisotropic XC          0.019641311055 Eh    ::
         :: -> dispersion             -0.023092034514 Eh    ::
         :: repulsion energy           0.610403641856 Eh    ::
         :: add. restraining           0.000000000000 Eh    ::
         :: total charge               0.000000000000 e     ::
         :::::::::::::::::::::::::::::::::::::::::::::::::::::

           -------------------------------------------------
          |                Property Printout                |
           -------------------------------------------------

    * Orbital Energies and Occupations

         #    Occupation            Energy/Eh            Energy/eV
      -------------------------------------------------------------
         1        2.0000           -0.8252892             -22.4573
       ...           ...                  ...                  ...
        28        2.0000           -0.5022384             -13.6666
        29        2.0000           -0.4975336             -13.5386
        30        2.0000           -0.4934004             -13.4261
        31        2.0000           -0.4880784             -13.2813
        32        2.0000           -0.4789004             -13.0315
        33        2.0000           -0.4670850             -12.7100
        34        2.0000           -0.4613830             -12.5549
        35        2.0000           -0.4502029             -12.2506
        36        2.0000           -0.4412568             -12.0072
        37        2.0000           -0.4310645             -11.7299
        38        2.0000           -0.4245634             -11.5530
        39        2.0000           -0.4174745             -11.3601
        40        2.0000           -0.3839932             -10.4490 (HOMO)
        41                         -0.3136014              -8.5335 (LUMO)
        42                         -0.2888904              -7.8611
        43                         -0.2508589              -6.8262
        44                         -0.2429351              -6.6106
        45                         -0.2129700              -5.7952
        46                         -0.1394641              -3.7950
        47                         -0.1032744              -2.8102
        48                          0.0285441               0.7767
        49                          0.0438300               1.1927
        50                          0.0810004               2.2041
        51                          0.0965668               2.6277
       ...                                ...                  ...
        71                          0.6839741              18.6119
      -------------------------------------------------------------
                  HL-Gap            0.0703918 Eh            1.9155 eV
             Fermi-level           -0.3487973 Eh           -9.4913 eV

     #   Z          covCN         q      C6AA      α(0)
     1   7 N        1.842    -0.231    26.894     7.686
     2   6 C        2.977     0.116    25.440     8.273
     3   6 C        2.910    -0.048    29.183     8.858
     4   6 C        2.983     0.087    26.057     8.373
     5   7 N        1.839    -0.215    26.512     7.631
     6   6 C        2.912     0.153    24.681     8.146
     7   6 C        2.695     0.354    20.998     7.500
     8   8 O        0.856    -0.366    21.021     6.147
     9   8 O        1.660    -0.379    20.439     6.103
    10   6 C        2.983     0.009    27.821     8.652
    11   6 C        2.921    -0.036    28.895     8.815
    12   6 C        2.923    -0.026    28.664     8.780
    13   6 C        2.917    -0.044    29.087     8.844
    14   6 C        2.785     0.175    24.230     8.063
    15   6 C        2.923    -0.043    29.069     8.842
    16   9 F        0.787    -0.219    11.431     3.994
    17   1 H        0.926     0.065     2.138     2.287
    18   1 H        0.925     0.061     2.184     2.311
    19   1 H        0.804     0.335     0.624     1.240
    20   1 H        0.926     0.049     2.335     2.390
    21   1 H        0.926     0.052     2.292     2.367
    22   1 H        0.926     0.065     2.137     2.286
    23   1 H        0.926     0.084     1.937     2.176

 Mol. C6AA /au·bohr⁶  :       7921.798608
 Mol. C8AA /au·bohr⁸  :     194751.955305
 Mol. α(0) /au        :        139.763467


Wiberg/Mayer (AO) data.
largest (>0.10) Wiberg bond orders for each atom

 ---------------------------------------------------------------------------
     #   Z sym  total        # sym  WBO       # sym  WBO       # sym  WBO
 ---------------------------------------------------------------------------
     1   7 N    3.068 --     6 C    1.438     2 C    1.382
     2   6 C    3.975 --     1 N    1.382     3 C    1.362    10 C    1.057
     3   6 C    3.988 --     4 C    1.415     2 C    1.362    17 H    0.961
                             6 C    0.106
     4   6 C    3.979 --     3 C    1.415     5 N    1.389     7 C    0.968
     5   7 N    3.064 --     6 C    1.433     4 C    1.389
     6   6 C    3.963 --     1 N    1.438     5 N    1.433    18 H    0.954
                             3 C    0.106
     7   6 C    3.920 --     8 O    1.784     9 O    1.121     4 C    0.968
     8   8 O    2.076 --     7 C    1.784     9 O    0.181
     9   8 O    2.195 --     7 C    1.121    19 H    0.863     8 O    0.181
    10   6 C    3.989 --    11 C    1.382    15 C    1.379     2 C    1.057
                            13 C    0.101
    11   6 C    3.991 --    12 C    1.451    10 C    1.382    20 H    0.966
    12   6 C    3.990 --    11 C    1.451    13 C    1.435    21 H    0.969
                            15 C    0.106
    13   6 C    3.981 --    12 C    1.435    14 C    1.387    22 H    0.967
                            10 C    0.101
    14   6 C    3.891 --    15 C    1.413    13 C    1.387    16 F    0.964
    15   6 C    3.986 --    14 C    1.413    10 C    1.379    23 H    0.961
                            12 C    0.106
    16   9 F    1.098 --    14 C    0.964
    17   1 H    0.996 --     3 C    0.961
    18   1 H    0.995 --     6 C    0.954
    19   1 H    0.887 --     9 O    0.863
    20   1 H    0.998 --    11 C    0.966
    21   1 H    0.997 --    12 C    0.969
    22   1 H    0.995 --    13 C    0.967
    23   1 H    0.993 --    15 C    0.961
 ---------------------------------------------------------------------------

Topologies differ in total number of bonds
Writing topology from bond orders to xtbtopo.mol

molecular dipole:
                 x           y           z       tot (Debye)
 q only:        0.334      -1.337      -0.417
   full:        0.174      -1.800      -0.553       4.806
molecular quadrupole (traceless):
                xx          xy          yy          xz          yz          zz
 q only:      -13.650       2.540      14.724      -6.500       5.002      -1.074
  q+dip:      -15.027       4.056      17.107      -6.852       7.553      -2.080
   full:      -17.434       5.083      15.665      -7.999       5.063       1.769

           -------------------------------------------------
          |                Geometry Summary                 |
           -------------------------------------------------

      molecular mass/u    :      218.1842996
   center of mass at/Å    :        1.0876025      -1.2992847       0.1371628
  moments of inertia/u·Å² :        0.3633385E+03   0.1990836E+04   0.2311771E+04
rotational constants/cm⁻¹ :        0.4639649E-01   0.8467615E-02   0.7292086E-02

 * 21 selected distances

     #   Z          #   Z                                           value/Å
     1   7 N        2   6 C                                       1.3332999
     2   6 C        3   6 C                                       1.3991100 (max)
     3   6 C        4   6 C                                       1.3897269
     4   6 C        5   7 N                                       1.3297391
     1   7 N        6   6 C                                       1.3174704
     5   7 N        6   6 C                                       1.3175405
     7   6 C        8   8 O                                       1.1982600
     7   6 C        9   8 O                                       1.3431278
    10   6 C       11   6 C                                       1.3940415
    11   6 C       12   6 C                                       1.3832061
    12   6 C       13   6 C                                       1.3843797
    13   6 C       14   6 C                                       1.3845484
    10   6 C       15   6 C                                       1.3938737
    14   6 C       15   6 C                                       1.3794837
     3   6 C       17   1 H                                       1.0763572
     6   6 C       18   1 H                                       1.0822577
     9   8 O       19   1 H                                       0.9706025 (min)
    11   6 C       20   1 H                                       1.0788405
    12   6 C       21   1 H                                       1.0792613
    13   6 C       22   1 H                                       1.0783491
    15   6 C       23   1 H                                       1.0776969

 * 5 distinct bonds (by element types)

   Z      Z             #   av. dist./Å        max./Å        min./Å
   1 H    6 C           6     1.0787938     1.0822577     1.0763572
   6 C    6 C           8     1.3885462     1.3991100     1.3794837
   6 C    7 N           4     1.3245124     1.3332999     1.3174704
   1 H    8 O           1     0.9706025     0.9706025     0.9706025
   6 C    8 O           2     1.2706939     1.3431278     1.1982600


optimized geometry written to: xtbopt.xyz


           -------------------------------------------------
          | TOTAL ENERGY              -45.826531021810 Eh   |
          | GRADIENT NORM               0.000585834853 Eh/α |
          | HOMO-LUMO GAP               1.915458512386 eV   |
           -------------------------------------------------

------------------------------------------------------------------------
 * finished run on 2024/12/17 at 14:07:49.178     
------------------------------------------------------------------------
 total:
 * wall-time:     0 d,  0 h,  0 min,  0.242 sec
 *  cpu-time:     0 d,  0 h,  0 min,  1.899 sec
 * ratio c/w:     7.861 speedup
 SCF:
 * wall-time:     0 d,  0 h,  0 min,  0.016 sec
 *  cpu-time:     0 d,  0 h,  0 min,  0.126 sec
 * ratio c/w:     7.929 speedup
 ANC optimizer:
 * wall-time:     0 d,  0 h,  0 min,  0.209 sec
 *  cpu-time:     0 d,  0 h,  0 min,  1.649 sec
 * ratio c/w:     7.908 speedup

