      -----------------------------------------------------------      
     |                   =====================                   |     
     |                           x T B                           |     
     |                   =====================                   |     
     |                         S. Grimme                         |     
     |          Mulliken Center for Theoretical Chemistry        |     
     |                    University of Bonn                     |     
      -----------------------------------------------------------      

   * xtb version 6.7.1 (edcfbbe) compiled by 'conda@3ef47c1a292c' on 2024-11-25

   xtb is free software: you can redistribute it and/or modify it under
   the terms of the GNU Lesser General Public License as published by
   the Free Software Foundation, either version 3 of the License, or
   (at your option) any later version.
   
   xtb is distributed in the hope that it will be useful,
   but WITHOUT ANY WARRANTY; without even the implied warranty of
   MERCHANTABILITY or FITNESS FOR A PARTICULAR PURPOSE.  See the
   GNU Lesser General Public License for more details.
   
   Cite this work as:
   * C. Bannwarth, E. Caldeweyher, S. Ehlert, A. Hansen, P. Pracht,
     J. Seibert, S. Spicher, S. Grimme, WIREs Comput. Mol. Sci., 2020, 11,
     e01493. DOI: 10.1002/wcms.1493
   
   for GFN2-xTB:
   * C. Bannwarth, S. Ehlert and S. Grimme., J. Chem. Theory Comput., 2019,
     15, 1652-1671. DOI: 10.1021/acs.jctc.8b01176
   for GFN1-xTB:
   * S. Grimme, C. Bannwarth, P. Shushkov, J. Chem. Theory Comput., 2017,
     13, 1989-2009. DOI: 10.1021/acs.jctc.7b00118
   for GFN0-xTB:
   * P. Pracht, E. Caldeweyher, S. Ehlert, S. Grimme, ChemRxiv, 2019, preprint.
     DOI: 10.26434/chemrxiv.8326202.v1
   for GFN-FF:
   * S. Spicher and S. Grimme, Angew. Chem. Int. Ed., 2020, 59, 15665-15673.
     DOI: 10.1002/anie.202004239
   
   for ALPB and GBSA implicit solvation:
   * S. Ehlert, M. Stahn, S. Spicher, S. Grimme, J. Chem. Theory Comput.,
     2021, 17, 4250-4261. DOI: 10.1021/acs.jctc.1c00471
   
   for ddCOSMO and CPCM-X implicit solvation:
   * M. Stahn, S. Ehlert, S. Grimme, J. Phys. Chem. A,
     2023, XX, XXXX-XXXX. DOI: 10.1021/acs.jpca.3c04382
   
   for DFT-D4:
   * E. Caldeweyher, C. Bannwarth and S. Grimme, J. Chem. Phys., 2017,
     147, 034112. DOI: 10.1063/1.4993215
   * E. Caldeweyher, S. Ehlert, A. Hansen, H. Neugebauer, S. Spicher,
     C. Bannwarth and S. Grimme, J. Chem. Phys., 2019, 150, 154122.
     DOI: 10.1063/1.5090222
   * E. Caldeweyher, J.-M. Mewes, S. Ehlert and S. Grimme, Phys. Chem. Chem. Phys.
     2020, 22, 8499-8512. DOI: 10.1039/D0CP00502A
   
   for sTDA-xTB:
   * S. Grimme and C. Bannwarth, J. Chem. Phys., 2016, 145, 054103.
     DOI: 10.1063/1.4959605
   
   in the mass-spec context:
   * V. Asgeirsson, C. Bauer and S. Grimme, Chem. Sci., 2017, 8, 4879.
     DOI: 10.1039/c7sc00601b
   * J. Koopman and S. Grimme, ACS Omega 2019, 4, 12, 15120-15133.
     DOI: 10.1021/acsomega.9b02011
   
   for metadynamics refer to:
   * S. Grimme, J. Chem. Theory Comput., 2019, 155, 2847-2862
     DOI: 10.1021/acs.jctc.9b00143
   
   for SPH calculations refer to:
   * S. Spicher and S. Grimme, J. Chem. Theory Comput., 2021, 17, 1701-1714
     DOI: 10.1021/acs.jctc.0c01306
   
   for ONIOM refer to:
   * C. Plett, A. Katbashev, S. Ehlert, S. Grimme, M. Bursch,
     Phys. Chem. Chem. Phys., 2023, 25, 17860-17868. DOI: 10.1039/D3CP02178E
   
   for DIPRO refer to:
   * J. Kohn, N. Gildemeister, S. Grimme, D. Fazzi, A. Hansen,
     J. Chem. Phys., 2023, just accepted.
   
   for PTB refer to:
   * S. Grimme, M. Mueller, A. Hansen, J. Chem. Phys., 2023, 158, 124111.
     DOI: 10.1063/5.0137838
   
   with help from (in alphabetical order)
   P. Atkinson, C. Bannwarth, F. Bohle, G. Brandenburg, E. Caldeweyher
   M. Checinski, S. Dohm, S. Ehlert, S. Ehrlich, I. Gerasimov, C. Hölzer
   A. Katbashev, J. Kohn, J. Koopman, C. Lavigne, S. Lehtola, F. März, M. Müller,
   F. Musil, H. Neugebauer, J. Pisarek, C. Plett, P. Pracht, F. Pultar,
   J. Seibert, P. Shushkov, S. Spicher, M. Stahn, M. Steiner, T. Strunk,
   J. Stückrath, T. Rose, and J. Unsleber
   
 * started run on 2024/12/17 at 14:08:02.825     
   ID    Z sym.   atoms
    1    7 N      1, 5
    2    6 C      2-4, 6, 7, 10-15
    3    8 O      8, 9
    4   17 Cl     16
    5    1 H      17-23

           -------------------------------------------------
          |                Calculation Setup                |
           -------------------------------------------------

          program call               : xtb K005.xyz --opt --namespace K005
          calculation namespace      : K005
          coordinate file            : K005.xyz
          omp threads                :                     8


           -------------------------------------------------
          |                 G F N 2 - x T B                 |
           -------------------------------------------------

        Reference                      10.1021/acs.jctc.8b01176
      * Hamiltonian:
        H0-scaling (s, p, d)           1.850000    2.230000    2.230000
        zeta-weighting                 0.500000
      * Dispersion:
        s8                             2.700000
        a1                             0.520000
        a2                             5.000000
        s9                             5.000000
      * Repulsion:
        kExp                           1.500000    1.000000
        rExp                           1.000000
      * Coulomb:
        alpha                          2.000000
        third order                    shell-resolved
        anisotropic                    true
        a3                             3.000000
        a5                             4.000000
        cn-shift                       1.200000
        cn-exp                         4.000000
        max-rad                        5.000000


          ...................................................
          :                      SETUP                      :
          :.................................................:
          :  # basis functions                  77          :
          :  # atomic orbitals                  76          :
          :  # shells                           40          :
          :  # electrons                        80          :
          :  max. iterations                   250          :
          :  Hamiltonian                  GFN2-xTB          :
          :  restarted?                      false          :
          :  GBSA solvation                  false          :
          :  PC potential                    false          :
          :  electronic temp.          300.0000000     K    :
          :  accuracy                    1.0000000          :
          :  -> integral cutoff          0.2500000E+02      :
          :  -> integral neglect         0.1000000E-07      :
          :  -> SCF convergence          0.1000000E-05 Eh   :
          :  -> wf. convergence          0.1000000E-03 e    :
          :  Broyden damping             0.4000000          :
          :  net charge                          0          :
          :  unpaired electrons                  0          :
          ...................................................

 iter      E             dE          RMSdq      gap      omega  full diag
   1    -46.1508336 -0.461508E+02  0.507E+00    2.25       0.0  T
   2    -46.1991765 -0.483429E-01  0.305E+00    2.23       1.0  T
   3    -46.1973248  0.185168E-02  0.145E+00    1.98       1.0  T
   4    -46.2086601 -0.113353E-01  0.311E-01    1.89       1.0  T
   5    -46.2101130 -0.145287E-02  0.107E-01    1.86       1.0  T
   6    -46.2102391 -0.126118E-03  0.428E-02    1.86       1.0  T
   7    -46.2102434 -0.429425E-05  0.228E-02    1.86       1.0  T
   8    -46.2102493 -0.585505E-05  0.131E-02    1.86       1.6  T
   9    -46.2102503 -0.104277E-05  0.935E-03    1.86       2.2  T
  10    -46.2102508 -0.524573E-06  0.657E-03    1.86       3.2  T
  11    -46.2102513 -0.508848E-06  0.334E-03    1.86       6.2  T
  12    -46.2102514 -0.887129E-07  0.161E-03    1.86      13.0  T
  13    -46.2102515 -0.287096E-07  0.615E-04    1.86      33.9  T
  14    -46.2102515 -0.206119E-08  0.350E-04    1.86      59.6  T

   *** convergence criteria satisfied after 14 iterations ***

         #    Occupation            Energy/Eh            Energy/eV
      -------------------------------------------------------------
         1        2.0000           -1.0639132             -28.9506
       ...           ...                  ...                  ...
        34        2.0000           -0.4538478             -12.3498
        35        2.0000           -0.4423886             -12.0380
        36        2.0000           -0.4299180             -11.6987
        37        2.0000           -0.4273175             -11.6279
        38        2.0000           -0.4220636             -11.4849
        39        2.0000           -0.4100037             -11.1568
        40        2.0000           -0.3875709             -10.5463 (HOMO)
        41                         -0.3190591              -8.6820 (LUMO)
        42                         -0.2863357              -7.7916
        43                         -0.2550191              -6.9394
        44                         -0.2511443              -6.8340
        45                         -0.2242390              -6.1019
       ...                                ...                  ...
        76                          0.6328130              17.2197
      -------------------------------------------------------------
                  HL-Gap            0.0685119 Eh            1.8643 eV
             Fermi-level           -0.3533150 Eh           -9.6142 eV

 SCC (total)                   0 d,  0 h,  0 min,  0.019 sec
 SCC setup                      ...        0 min,  0.000 sec (  0.753%)
 Dispersion                     ...        0 min,  0.000 sec (  1.115%)
 classical contributions        ...        0 min,  0.000 sec (  0.262%)
 integral evaluation            ...        0 min,  0.002 sec ( 12.419%)
 iterations                     ...        0 min,  0.013 sec ( 69.721%)
 molecular gradient             ...        0 min,  0.003 sec ( 15.180%)
 printout                       ...        0 min,  0.000 sec (  0.465%)

         :::::::::::::::::::::::::::::::::::::::::::::::::::::
         ::                     SUMMARY                     ::
         :::::::::::::::::::::::::::::::::::::::::::::::::::::
         :: total energy             -45.642101476206 Eh    ::
         :: gradient norm              0.073351762196 Eh/a0 ::
         :: HOMO-LUMO gap              1.864302614108 eV    ::
         ::.................................................::
         :: SCC energy               -46.210304260477 Eh    ::
         :: -> isotropic ES            0.065026037877 Eh    ::
         :: -> anisotropic ES          0.003192047939 Eh    ::
         :: -> anisotropic XC          0.025717818647 Eh    ::
         :: -> dispersion             -0.024548152922 Eh    ::
         :: repulsion energy           0.568202784272 Eh    ::
         :: add. restraining           0.000000000000 Eh    ::
         :: total charge               0.000000000000 e     ::
         :::::::::::::::::::::::::::::::::::::::::::::::::::::

      ----------------------------------------------------------- 
     |                   =====================                   |
     |                        A N C O P T                        |
     |                   =====================                   |
     |               Approximate Normal Coordinate               |
     |                Rational Function Optimizer                |
      ----------------------------------------------------------- 
      ----------------------------------------------------------- 
     |                   =====================                   |
     |                        A N C O P T                        |
     |                   =====================                   |
     |               Approximate Normal Coordinate               |
     |                Rational Function Optimizer                |
      ----------------------------------------------------------- 

          ...................................................
          :                      SETUP                      :
          :.................................................:
          :   optimization level            normal          :
          :   max. optcycles                   200          :
          :   ANC micro-cycles                  20          :
          :   degrees of freedom                63          :
          :.................................................:
          :   RF solver                   davidson          :
          :   write xtbopt.log                true          :
          :   linear?                        false          :
          :   energy convergence         0.5000000E-05 Eh   :
          :   grad. convergence          0.1000000E-02 Eh/α :
          :   maxmium RF displ.          1.0000000          :
          :   Hlow (freq-cutoff)         0.1000000E-01      :
          :   Hmax (freq-cutoff)         5.0000000          :
          :   S6 in model hess.         20.0000000          :
          ...................................................

generating ANC from exact Hessian ...
Using Lindh-Hessian (1995)
 Shifting diagonal of input Hessian by    8.9467988292760963E-003
 Lowest  eigenvalues of input Hessian
    0.000000    0.000000    0.000000    0.000000    0.000000    0.000000
    0.010000    0.010826    0.011311    0.014960    0.017020    0.019730
    0.021063    0.025167    0.030470    0.032101    0.036974    0.038664
 Highest eigenvalues
    1.923242    1.940835    2.012986    2.071463    2.120542    2.330877


........................................................................
.............................. CYCLE    1 ..............................
........................................................................

 iter      E             dE          RMSdq      gap      omega  full diag
   1    -46.2102515 -0.462103E+02  0.190E-04    1.86       0.0  T
   2    -46.2102515 -0.159808E-09  0.145E-04    1.86     143.7  T
   3    -46.2102515 -0.791616E-10  0.119E-04    1.86     175.7  T
     SCC iter.                  ...        0 min,  0.003 sec
     gradient                   ...        0 min,  0.003 sec
 * total energy  :   -45.6421015 Eh     change       -0.6773320E-09 Eh
   gradient norm :     0.0733494 Eh/α   predicted     0.0000000E+00 (-100.00%)
   displ. norm   :     0.1614443 α      lambda       -0.6593171E-02
   maximum displ.:     0.0756382 α      in ANC's #31, #12, #25, ...

........................................................................
.............................. CYCLE    2 ..............................
........................................................................

 iter      E             dE          RMSdq      gap      omega  full diag
   1    -46.2426386 -0.462426E+02  0.152E-01    1.92       0.0  T
   2    -46.2427096 -0.710363E-04  0.104E-01    1.91       1.0  T
   3    -46.2427129 -0.331676E-05  0.521E-02    1.91       1.0  T
   4    -46.2427342 -0.212503E-04  0.140E-02    1.91       1.5  T
   5    -46.2427364 -0.218357E-05  0.416E-03    1.91       5.0  T
   6    -46.2427365 -0.137826E-06  0.254E-03    1.91       8.2  T
   7    -46.2427365 -0.385489E-07  0.140E-03    1.91      14.9  T
   8    -46.2427365 -0.178360E-07  0.956E-04    1.91      21.8  T
   9    -46.2427366 -0.723811E-08  0.553E-04    1.91      37.7  T
     SCC iter.                  ...        0 min,  0.007 sec
     gradient                   ...        0 min,  0.003 sec
 * total energy  :   -45.6465041 Eh     change       -0.4402574E-02 Eh
   gradient norm :     0.0243496 Eh/α   predicted    -0.3382728E-02 ( -23.16%)
   displ. norm   :     0.1451222 α      lambda       -0.1531764E-02
   maximum displ.:     0.0645169 α      in ANC's #1, #25, #26, ...

........................................................................
.............................. CYCLE    3 ..............................
........................................................................

 iter      E             dE          RMSdq      gap      omega  full diag
   1    -46.2548811 -0.462549E+02  0.104E-01    1.93       0.0  T
   2    -46.2548997 -0.185690E-04  0.672E-02    1.93       1.0  T
   3    -46.2548928  0.690432E-05  0.337E-02    1.93       1.0  T
   4    -46.2549079 -0.151121E-04  0.666E-03    1.93       3.1  T
   5    -46.2549084 -0.440136E-06  0.255E-03    1.93       8.2  T
   6    -46.2549084 -0.355308E-07  0.144E-03    1.93      14.5  T
   7    -46.2549084 -0.105364E-07  0.639E-04    1.93      32.6  T
   8    -46.2549084 -0.532132E-08  0.359E-04    1.93      58.1  T
     SCC iter.                  ...        0 min,  0.007 sec
     gradient                   ...        0 min,  0.003 sec
 * total energy  :   -45.6474070 Eh     change       -0.9029973E-03 Eh
   gradient norm :     0.0074799 Eh/α   predicted    -0.7821040E-03 ( -13.39%)
   displ. norm   :     0.1176286 α      lambda       -0.2764425E-03
   maximum displ.:     0.0751369 α      in ANC's #1, #2, #4, ...

........................................................................
.............................. CYCLE    4 ..............................
........................................................................

 iter      E             dE          RMSdq      gap      omega  full diag
   1    -46.2547423 -0.462547E+02  0.648E-02    1.94       0.0  T
   2    -46.2547438 -0.153131E-05  0.379E-02    1.93       1.0  T
   3    -46.2547420  0.182366E-05  0.111E-02    1.93       1.9  T
   4    -46.2547444 -0.238713E-05  0.242E-03    1.93       8.6  T
   5    -46.2547444 -0.335518E-07  0.136E-03    1.93      15.3  T
   6    -46.2547444 -0.103764E-07  0.744E-04    1.93      28.0  T
   7    -46.2547444 -0.234876E-08  0.502E-04    1.93      41.5  T
     SCC iter.                  ...        0 min,  0.006 sec
     gradient                   ...        0 min,  0.003 sec
 * total energy  :   -45.6476188 Eh     change       -0.2117942E-03 Eh
   gradient norm :     0.0062378 Eh/α   predicted    -0.1401356E-03 ( -33.83%)
   displ. norm   :     0.2081055 α      lambda       -0.2801943E-03
   maximum displ.:     0.1363635 α      in ANC's #1, #2, #4, ...

........................................................................
.............................. CYCLE    5 ..............................
........................................................................

 iter      E             dE          RMSdq      gap      omega  full diag
   1    -46.2525634 -0.462526E+02  0.111E-01    1.94       0.0  T
   2    -46.2525665 -0.310255E-05  0.647E-02    1.93       1.0  T
   3    -46.2525639  0.259439E-05  0.146E-02    1.93       1.4  T
   4    -46.2525676 -0.369492E-05  0.343E-03    1.93       6.1  T
   5    -46.2525676 -0.457369E-07  0.204E-03    1.93      10.2  T
   6    -46.2525677 -0.274866E-07  0.120E-03    1.93      17.4  T
   7    -46.2525677 -0.721691E-08  0.868E-04    1.93      24.0  T
   8    -46.2525677 -0.490029E-08  0.619E-04    1.93      33.7  T
     SCC iter.                  ...        0 min,  0.007 sec
     gradient                   ...        0 min,  0.003 sec
 * total energy  :   -45.6478090 Eh     change       -0.1901574E-03 Eh
   gradient norm :     0.0038945 Eh/α   predicted    -0.1461647E-03 ( -23.13%)
   displ. norm   :     0.1750349 α      lambda       -0.1316615E-03
   maximum displ.:     0.1205131 α      in ANC's #1, #2, #3, ...

........................................................................
.............................. CYCLE    6 ..............................
........................................................................

 iter      E             dE          RMSdq      gap      omega  full diag
   1    -46.2516425 -0.462516E+02  0.933E-02    1.94       0.0  T
   2    -46.2516440 -0.151280E-05  0.544E-02    1.93       1.0  T
   3    -46.2516425  0.151544E-05  0.105E-02    1.94       2.0  T
   4    -46.2516446 -0.210274E-05  0.230E-03    1.93       9.1  T
   5    -46.2516446 -0.192714E-07  0.123E-03    1.93      17.0  T
   6    -46.2516446 -0.984473E-08  0.699E-04    1.93      29.8  T
   7    -46.2516446 -0.262586E-08  0.531E-04    1.93      39.3  T
     SCC iter.                  ...        0 min,  0.006 sec
     gradient                   ...        0 min,  0.003 sec
 * total energy  :   -45.6479148 Eh     change       -0.1058446E-03 Eh
   gradient norm :     0.0038106 Eh/α   predicted    -0.6785989E-04 ( -35.89%)
   displ. norm   :     0.2021105 α      lambda       -0.1491340E-03
   maximum displ.:     0.1366295 α      in ANC's #1, #2, #3, ...

........................................................................
.............................. CYCLE    7 ..............................
........................................................................

 iter      E             dE          RMSdq      gap      omega  full diag
   1    -46.2515746 -0.462516E+02  0.108E-01    1.94       0.0  T
   2    -46.2515761 -0.148127E-05  0.632E-02    1.93       1.0  T
   3    -46.2515747  0.139168E-05  0.978E-03    1.93       2.1  T
   4    -46.2515767 -0.199312E-05  0.224E-03    1.93       9.3  T
   5    -46.2515767 -0.165627E-07  0.970E-04    1.93      21.5  T
   6    -46.2515767 -0.582320E-08  0.491E-04    1.93      42.5  T
     SCC iter.                  ...        0 min,  0.005 sec
     gradient                   ...        0 min,  0.003 sec
 * total energy  :   -45.6480437 Eh     change       -0.1288618E-03 Eh
   gradient norm :     0.0051364 Eh/α   predicted    -0.7761375E-04 ( -39.77%)
   displ. norm   :     0.2970925 α      lambda       -0.2164639E-03
   maximum displ.:     0.2022231 α      in ANC's #1, #2, #3, ...

........................................................................
.............................. CYCLE    8 ..............................
........................................................................

 iter      E             dE          RMSdq      gap      omega  full diag
   1    -46.2518168 -0.462518E+02  0.159E-01    1.93       0.0  T
   2    -46.2518194 -0.268516E-05  0.925E-02    1.93       1.0  T
   3    -46.2518176  0.180004E-05  0.116E-02    1.93       1.8  T
   4    -46.2518205 -0.287556E-05  0.310E-03    1.93       6.7  T
   5    -46.2518205 -0.301793E-07  0.114E-03    1.93      18.3  T
   6    -46.2518206 -0.142545E-07  0.466E-04    1.93      44.8  T
   7    -46.2518206 -0.247867E-08  0.301E-04    1.93      69.2  T
     SCC iter.                  ...        0 min,  0.006 sec
     gradient                   ...        0 min,  0.003 sec
 * total energy  :   -45.6482241 Eh     change       -0.1803454E-03 Eh
   gradient norm :     0.0064600 Eh/α   predicted    -0.1177876E-03 ( -34.69%)
   displ. norm   :     0.3514296 α      lambda       -0.2217505E-03
   maximum displ.:     0.2458120 α      in ANC's #1, #2, #3, ...

........................................................................
.............................. CYCLE    9 ..............................
........................................................................

 iter      E             dE          RMSdq      gap      omega  full diag
   1    -46.2517277 -0.462517E+02  0.187E-01    1.93       0.0  T
   2    -46.2517310 -0.329150E-05  0.109E-01    1.93       1.0  T
   3    -46.2517290  0.198434E-05  0.125E-02    1.93       1.7  T
   4    -46.2517324 -0.333024E-05  0.354E-03    1.93       5.9  T
   5    -46.2517324 -0.353874E-07  0.136E-03    1.93      15.4  T
   6    -46.2517324 -0.257858E-07  0.494E-04    1.93      42.2  T
   7    -46.2517324 -0.199360E-08  0.318E-04    1.93      65.5  T
     SCC iter.                  ...        0 min,  0.006 sec
     gradient                   ...        0 min,  0.003 sec
 * total energy  :   -45.6484010 Eh     change       -0.1769532E-03 Eh
   gradient norm :     0.0060301 Eh/α   predicted    -0.1245709E-03 ( -29.60%)
   displ. norm   :     0.3019383 α      lambda       -0.1674645E-03
   maximum displ.:     0.2256468 α      in ANC's #1, #2, #3, ...

........................................................................
.............................. CYCLE   10 ..............................
........................................................................

 iter      E             dE          RMSdq      gap      omega  full diag
   1    -46.2523803 -0.462524E+02  0.159E-01    1.92       0.0  T
   2    -46.2523824 -0.211270E-05  0.925E-02    1.92       1.0  T
   3    -46.2523808  0.152813E-05  0.103E-02    1.92       2.0  T
   4    -46.2523833 -0.245099E-05  0.290E-03    1.92       7.2  T
   5    -46.2523833 -0.216390E-07  0.114E-03    1.92      18.3  T
   6    -46.2523833 -0.199157E-07  0.348E-04    1.92      59.9  T
   7    -46.2523833 -0.613113E-09  0.208E-04    1.92     100.3  T
     SCC iter.                  ...        0 min,  0.006 sec
     gradient                   ...        0 min,  0.003 sec
 * total energy  :   -45.6485326 Eh     change       -0.1315542E-03 Eh
   gradient norm :     0.0038073 Eh/α   predicted    -0.9136721E-04 ( -30.55%)
   displ. norm   :     0.2446953 α      lambda       -0.1111175E-03
   maximum displ.:     0.1930638 α      in ANC's #1, #3, #2, ...

........................................................................
.............................. CYCLE   11 ..............................
........................................................................

 iter      E             dE          RMSdq      gap      omega  full diag
   1    -46.2531866 -0.462532E+02  0.127E-01    1.92       0.0  T
   2    -46.2531877 -0.115011E-05  0.739E-02    1.92       1.0  T
   3    -46.2531861  0.158684E-05  0.906E-03    1.92       2.3  T
   4    -46.2531883 -0.219722E-05  0.219E-03    1.92       9.5  T
   5    -46.2531883 -0.949634E-08  0.800E-04    1.92      26.1  T
   6    -46.2531883 -0.766744E-08  0.350E-04    1.92      59.6  T
     SCC iter.                  ...        0 min,  0.005 sec
     gradient                   ...        0 min,  0.003 sec
 * total energy  :   -45.6486213 Eh     change       -0.8878494E-04 Eh
   gradient norm :     0.0021143 Eh/α   predicted    -0.5888658E-04 ( -33.68%)
   displ. norm   :     0.1967082 α      lambda       -0.7469772E-04
   maximum displ.:     0.1631665 α      in ANC's #1, #3, #2, ...

........................................................................
.............................. CYCLE   12 ..............................
........................................................................

 iter      E             dE          RMSdq      gap      omega  full diag
   1    -46.2536864 -0.462537E+02  0.986E-02    1.92       0.0  T
   2    -46.2536870 -0.620167E-06  0.576E-02    1.92       1.0  T
   3    -46.2536861  0.988646E-06  0.677E-03    1.92       3.1  T
   4    -46.2536874 -0.134715E-05  0.164E-03    1.92      12.7  T
   5    -46.2536874 -0.479676E-08  0.633E-04    1.92      32.9  T
   6    -46.2536874 -0.398888E-08  0.364E-04    1.92      57.3  T
     SCC iter.                  ...        0 min,  0.005 sec
     gradient                   ...        0 min,  0.003 sec
 * total energy  :   -45.6486844 Eh     change       -0.6307180E-04 Eh
   gradient norm :     0.0022544 Eh/α   predicted    -0.3879988E-04 ( -38.48%)
   displ. norm   :     0.1561781 α      lambda       -0.5723158E-04
   maximum displ.:     0.1342276 α      in ANC's #1, #3, #5, ...

........................................................................
.............................. CYCLE   13 ..............................
........................................................................

 iter      E             dE          RMSdq      gap      omega  full diag
   1    -46.2540027 -0.462540E+02  0.753E-02    1.92       0.0  T
   2    -46.2540030 -0.318366E-06  0.441E-02    1.92       1.0  T
   3    -46.2540022  0.771924E-06  0.562E-03    1.92       3.7  T
   4    -46.2540032 -0.983105E-06  0.122E-03    1.92      17.1  T
   5    -46.2540032 -0.240804E-08  0.626E-04    1.92      33.3  T
   6    -46.2540032 -0.327625E-08  0.337E-04    1.92      61.9  T
     SCC iter.                  ...        0 min,  0.005 sec
     gradient                   ...        0 min,  0.003 sec
 * total energy  :   -45.6487350 Eh     change       -0.5059222E-04 Eh
   gradient norm :     0.0024731 Eh/α   predicted    -0.2932566E-04 ( -42.04%)
   displ. norm   :     0.1373047 α      lambda       -0.5095288E-04
   maximum displ.:     0.1213755 α      in ANC's #1, #3, #5, ...

........................................................................
.............................. CYCLE   14 ..............................
........................................................................

 iter      E             dE          RMSdq      gap      omega  full diag
   1    -46.2540639 -0.462541E+02  0.631E-02    1.92       0.0  T
   2    -46.2540642 -0.267025E-06  0.370E-02    1.92       1.0  T
   3    -46.2540636  0.549420E-06  0.473E-03    1.92       4.4  T
   4    -46.2540643 -0.704445E-06  0.106E-03    1.92      19.6  T
   5    -46.2540643 -0.389484E-08  0.635E-04    1.92      32.8  T
   6    -46.2540643 -0.307357E-08  0.325E-04    1.92      64.2  T
     SCC iter.                  ...        0 min,  0.005 sec
     gradient                   ...        0 min,  0.003 sec
 * total energy  :   -45.6487805 Eh     change       -0.4546995E-04 Eh
   gradient norm :     0.0020852 Eh/α   predicted    -0.2596177E-04 ( -42.90%)
   displ. norm   :     0.1231584 α      lambda       -0.4573699E-04
   maximum displ.:     0.1099124 α      in ANC's #1, #3, #2, ...

........................................................................
.............................. CYCLE   15 ..............................
........................................................................

 iter      E             dE          RMSdq      gap      omega  full diag
   1    -46.2540173 -0.462540E+02  0.567E-02    1.92       0.0  T
   2    -46.2540175 -0.197738E-06  0.333E-02    1.92       1.0  T
   3    -46.2540171  0.406008E-06  0.419E-03    1.92       5.0  T
   4    -46.2540176 -0.522283E-06  0.956E-04    1.92      21.8  T
   5    -46.2540176 -0.396340E-08  0.563E-04    1.92      37.0  T
     SCC iter.                  ...        0 min,  0.004 sec
     gradient                   ...        0 min,  0.003 sec
 * total energy  :   -45.6488210 Eh     change       -0.4051175E-04 Eh
   gradient norm :     0.0016599 Eh/α   predicted    -0.2321613E-04 ( -42.69%)
   displ. norm   :     0.1716338 α      lambda       -0.4094921E-04
   maximum displ.:     0.1527569 α      in ANC's #1, #2, #3, ...

........................................................................
.............................. CYCLE   16 ..............................
........................................................................

 iter      E             dE          RMSdq      gap      omega  full diag
   1    -46.2538567 -0.462539E+02  0.787E-02    1.92       0.0  T
   2    -46.2538572 -0.524235E-06  0.460E-02    1.92       1.0  T
   3    -46.2538568  0.455072E-06  0.523E-03    1.92       4.0  T
   4    -46.2538575 -0.698259E-06  0.148E-03    1.92      14.1  T
   5    -46.2538575 -0.543458E-08  0.705E-04    1.92      29.6  T
   6    -46.2538575 -0.600568E-08  0.309E-04    1.92      67.6  T
     SCC iter.                  ...        0 min,  0.005 sec
     gradient                   ...        0 min,  0.003 sec
 * total energy  :   -45.6488724 Eh     change       -0.5138667E-04 Eh
   gradient norm :     0.0016115 Eh/α   predicted    -0.2074407E-04 ( -59.63%)
   displ. norm   :     0.1508743 α      lambda       -0.3168142E-04
   maximum displ.:     0.1324759 α      in ANC's #1, #2, #4, ...

........................................................................
.............................. CYCLE   17 ..............................
........................................................................

 iter      E             dE          RMSdq      gap      omega  full diag
   1    -46.2536558 -0.462537E+02  0.729E-02    1.92       0.0  T
   2    -46.2536563 -0.460885E-06  0.427E-02    1.92       1.0  T
   3    -46.2536562  0.110639E-06  0.373E-03    1.92       5.6  T
   4    -46.2536565 -0.303261E-06  0.149E-03    1.92      14.0  T
   5    -46.2536565 -0.137746E-07  0.551E-04    1.92      37.8  T
   6    -46.2536565 -0.242854E-08  0.270E-04    1.92      77.2  T
     SCC iter.                  ...        0 min,  0.005 sec
     gradient                   ...        0 min,  0.003 sec
 * total energy  :   -45.6489110 Eh     change       -0.3857414E-04 Eh
   gradient norm :     0.0015608 Eh/α   predicted    -0.1600320E-04 ( -58.51%)
   displ. norm   :     0.1407565 α      lambda       -0.2555364E-04
   maximum displ.:     0.1241540 α      in ANC's #1, #2, #4, ...

........................................................................
.............................. CYCLE   18 ..............................
........................................................................

 iter      E             dE          RMSdq      gap      omega  full diag
   1    -46.2535363 -0.462535E+02  0.693E-02    1.92       0.0  T
   2    -46.2535369 -0.541926E-06  0.404E-02    1.92       1.0  T
   3    -46.2535368  0.463688E-07  0.382E-03    1.92       5.5  T
   4    -46.2535370 -0.232644E-06  0.147E-03    1.92      14.2  T
   5    -46.2535371 -0.124004E-07  0.568E-04    1.92      36.7  T
   6    -46.2535371 -0.126139E-08  0.263E-04    1.92      79.3  T
     SCC iter.                  ...        0 min,  0.005 sec
     gradient                   ...        0 min,  0.003 sec
 * total energy  :   -45.6489400 Eh     change       -0.2900974E-04 Eh
   gradient norm :     0.0013252 Eh/α   predicted    -0.1289149E-04 ( -55.56%)
   displ. norm   :     0.1297719 α      lambda       -0.1813145E-04
   maximum displ.:     0.1151195 α      in ANC's #1, #2, #3, ...

........................................................................
.............................. CYCLE   19 ..............................
........................................................................

 iter      E             dE          RMSdq      gap      omega  full diag
   1    -46.2535163 -0.462535E+02  0.656E-02    1.92       0.0  T
   2    -46.2535168 -0.492631E-06  0.383E-02    1.92       1.0  T
   3    -46.2535167  0.576796E-07  0.342E-03    1.92       6.1  T
   4    -46.2535170 -0.235934E-06  0.152E-03    1.92      13.7  T
   5    -46.2535170 -0.167388E-07  0.670E-04    1.92      31.1  T
   6    -46.2535170 -0.433641E-08  0.374E-04    1.92      55.8  T
     SCC iter.                  ...        0 min,  0.006 sec
     gradient                   ...        0 min,  0.003 sec
 * total energy  :   -45.6489562 Eh     change       -0.1628822E-04 Eh
   gradient norm :     0.0014680 Eh/α   predicted    -0.9135841E-05 ( -43.91%)
   displ. norm   :     0.0810989 α      lambda       -0.9948045E-05
   maximum displ.:     0.0755171 α      in ANC's #1, #4, #2, ...

........................................................................
.............................. CYCLE   20 ..............................
........................................................................

 iter      E             dE          RMSdq      gap      omega  full diag
   1    -46.2535329 -0.462535E+02  0.402E-02    1.92       0.0  T
   2    -46.2535330 -0.170171E-06  0.235E-02    1.92       1.0  T
   3    -46.2535330  0.611236E-07  0.270E-03    1.92       7.7  T
   4    -46.2535331 -0.126757E-06  0.823E-04    1.92      25.3  T
   5    -46.2535331 -0.234860E-08  0.351E-04    1.92      59.4  T
     SCC iter.                  ...        0 min,  0.006 sec
     gradient                   ...        0 min,  0.003 sec
 * total energy  :   -45.6489657 Eh     change       -0.9461616E-05 Eh
   gradient norm :     0.0011495 Eh/α   predicted    -0.4990911E-05 ( -47.25%)
   displ. norm   :     0.0694543 α      lambda       -0.6846223E-05
   maximum displ.:     0.0643738 α      in ANC's #1, #4, #31, ...
 * RMSD in coord.:     0.6405747 α      energy gain  -0.6864234E-02 Eh

generating ANC from exact Hessian ...
Using Lindh-Hessian (1995)
 Shifting diagonal of input Hessian by    8.9526699866998762E-003
 Lowest  eigenvalues of input Hessian
    0.000000    0.000000    0.000000    0.000000    0.000000    0.000000
    0.010000    0.011025    0.011579    0.014855    0.016541    0.020409
    0.021763    0.026465    0.031506    0.034542    0.037861    0.039466
 Highest eigenvalues
    1.955986    2.000166    2.058193    2.138019    2.240609    2.430151


........................................................................
.............................. CYCLE   21 ..............................
........................................................................

 iter      E             dE          RMSdq      gap      omega  full diag
   1    -46.2535155 -0.462535E+02  0.350E-02    1.92       0.0  T
   2    -46.2535157 -0.207358E-06  0.205E-02    1.92       1.0  T
   3    -46.2535156  0.124707E-06  0.276E-03    1.92       7.5  T
   4    -46.2535157 -0.162603E-06  0.767E-04    1.92      27.2  T
   5    -46.2535157 -0.855496E-08  0.351E-04    1.92      59.4  T
     SCC iter.                  ...        0 min,  0.011 sec
     gradient                   ...        0 min,  0.007 sec
 * total energy  :   -45.6489713 Eh     change       -0.5579859E-05 Eh
   gradient norm :     0.0015367 Eh/α   predicted     0.0000000E+00 (-100.00%)
   displ. norm   :     0.0224927 α      lambda       -0.4260351E-05
   maximum displ.:     0.0156192 α      in ANC's #2, #1, #4, ...

........................................................................
.............................. CYCLE   22 ..............................
........................................................................

 iter      E             dE          RMSdq      gap      omega  full diag
   1    -46.2538280 -0.462538E+02  0.134E-02    1.92       0.0  T
   2    -46.2538281 -0.820046E-07  0.781E-03    1.92       2.7  T
   3    -46.2538280  0.336536E-07  0.164E-03    1.92      12.7  T
   4    -46.2538281 -0.461113E-07  0.421E-04    1.92      49.5  T
   5    -46.2538281 -0.216836E-08  0.201E-04    1.92     103.8  T
     SCC iter.                  ...        0 min,  0.006 sec
     gradient                   ...        0 min,  0.003 sec
 * total energy  :   -45.6489760 Eh     change       -0.4704908E-05 Eh
   gradient norm :     0.0005646 Eh/α   predicted    -0.2864573E-05 ( -39.12%)
   displ. norm   :     0.0268794 α      lambda       -0.2814136E-05
   maximum displ.:     0.0194627 α      in ANC's #2, #1, #5, ...

   *** GEOMETRY OPTIMIZATION CONVERGED AFTER 22 ITERATIONS ***

------------------------------------------------------------------------
 total energy gain   :        -0.0068745 Eh       -4.3138 kcal/mol
 total RMSD          :         0.6436527 a0        0.3406 Å
 total power (kW/mol):        -0.8204112 (step)  -74.8826 (real)
------------------------------------------------------------------------

 ANCopt (total)                0 d,  0 h,  0 min,  0.241 sec
 optimizer setup                ...        0 min,  0.000 sec (  0.057%)
 model hessian                  ...        0 min,  0.006 sec (  2.357%)
 ANC generation                 ...        0 min,  0.001 sec (  0.318%)
 coordinate transformation      ...        0 min,  0.000 sec (  0.075%)
 single point calculation       ...        0 min,  0.228 sec ( 94.614%)
 optimization log               ...        0 min,  0.003 sec (  1.293%)
 hessian update                 ...        0 min,  0.000 sec (  0.133%)
 rational function              ...        0 min,  0.002 sec (  0.665%)

================
 final structure:
================
23
 xtb: 6.7.1 (edcfbbe)
N            1.18602076385499        0.35971943371243        0.47931980035027
C            1.08992339171091       -0.92437744410773        0.13424363027247
C           -0.16079752775038       -1.49205014572326       -0.13241102548083
C           -1.26228954970449       -0.64985193585555       -0.03982517164491
N           -1.14432189306628        0.63467982961890        0.28348413507537
C            0.07519650663850        1.06630960584463        0.53289054890011
C           -2.65156585997055       -1.14048651687733       -0.30420197409187
O           -3.61872292726686       -0.44541622359845       -0.43619146499344
O           -2.70310727286615       -2.48007362832379       -0.38678117491555
C            2.34115112427348       -1.68857465269416        0.07131497886038
C            2.46996815435958       -2.82803598839440       -0.72042179991787
C            3.67010431746771       -3.51424845618065       -0.75661647183775
C            4.75098525928234       -3.08644481490397       -0.00490616684573
C            4.62042319762750       -1.94874186198229        0.77826127996900
C            3.43153417181962       -1.24488931266744        0.81777725304941
Cl           5.96397533308713       -1.40293615771033        1.71727453846887
H           -0.28256528264296       -2.53289077235528       -0.37822834357545
H            0.17551841838396        2.10839758851350        0.80721603816593
H           -3.61639972002977       -2.76404050264190       -0.55208616060208
H            1.64454894365693       -3.16613065744904       -1.32747794661736
H            3.76854449151666       -4.39187158178310       -1.37725540807451
H            5.68647908470379       -3.62255833514145       -0.02807622710519
H            3.32933687491513       -0.35601746929826        1.41897713259075

 Bond Distances (Angstroems)
 ---------------------------
N1-C2=1.3331         N1-C6=1.3176         C2-N1=1.3331         C2-C3=1.3992         C2-C10=1.4675        C3-C2=1.3992         
C3-C4=1.3897         C3-H17=1.0764        C4-C3=1.3897         C4-N5=1.3298         C4-C7=1.4969         N5-C4=1.3298         
N5-C6=1.3175         C6-N1=1.3176         C6-N5=1.3175         C6-H18=1.0823        C7-C4=1.4969         C7-O8=1.1983         
C7-O9=1.3431         O8-C7=1.1983         O9-C7=1.3431         O9-H19=0.9706        C10-C2=1.4675        C10-C11=1.3935       
C10-C15=1.3939       C11-C10=1.3935       C11-C12=1.3829       C11-H20=1.0790       C12-C11=1.3829       C12-C13=1.3843       
C12-H21=1.0794       C13-C12=1.3843       C13-C14=1.3874       C13-H22=1.0785       C14-C13=1.3874       C14-C15=1.3822       
C14-Cl16=1.7277      C15-C10=1.3939       C15-C14=1.3822       C15-H23=1.0780       Cl16-C14=1.7277      H17-C3=1.0764        
H18-C6=1.0823        H19-O9=0.9706        H20-C11=1.0790       H21-C12=1.0794       H22-C13=1.0785       H23-C15=1.0780       
 C  H  Rav=1.0789 sigma=0.0018  Rmin=1.0764  Rmax=1.0823     6
 C  C  Rav=1.4077 sigma=0.0381  Rmin=1.3822  Rmax=1.4969    10
 N  C  Rav=1.3245 sigma=0.0071  Rmin=1.3175  Rmax=1.3331     4
 O  H  Rav=0.9706 sigma=0.0000  Rmin=0.9706  Rmax=0.9706     1
 O  C  Rav=1.2707 sigma=0.0724  Rmin=1.1983  Rmax=1.3431     2
 Cl C  Rav=1.7277 sigma=0.0000  Rmin=1.7277  Rmax=1.7277     1

 selected bond angles (degree)
 --------------------
C6-N1-C2=117.79                C3-C2-N1=120.30                C10-C2-N1=116.82               C10-C2-C3=122.87               
C4-C3-C2=116.74                H17-C3-C2=122.48               H17-C3-C4=120.77               N5-C4-C3=122.09                
C7-C4-C3=121.68                C7-C4-N5=116.22                C6-N5-C4=116.40                N5-C6-N1=126.65                
H18-C6-N1=116.65               H18-C6-N5=116.70               O8-C7-C4=125.34                O9-C7-C4=111.92                
O9-C7-O8=122.74                H19-O9-C7=109.78               C11-C10-C2=121.94              C15-C10-C2=118.57              
C15-C10-C11=119.49             

 selected dihedral angles (degree)
 ---------------------------------
C3-C2-N1-C6=358.75            C10-C2-N1-C6=179.54           C4-C3-C2-N1=  1.06            C4-C3-C2-C10=180.21           
H17-C3-C2-N1=182.31           H17-C3-C2-C10=  1.47          N5-C4-C3-C2=  0.11            N5-C4-C3-H17=178.87           
C7-C4-C3-C2=179.90            C7-C4-C3-H17=358.67           C6-N5-C4-C3=359.00            C6-N5-C4-C7=179.20            
N5-C6-N1-C2=  0.29            H18-C6-N1-C2=180.47           N1-C6-N5-C4=  0.84            H18-C6-N5-C4=180.66           
O8-C7-C4-C3=191.54            O8-C7-C4-N5= 11.35            O9-C7-C4-C3= 11.25            O9-C7-C4-N5=191.06            
H19-O9-C7-C4=179.61           H19-O9-C7-O8=359.33           C11-C10-C2-N1=204.46          C11-C10-C2-C3= 25.28          
C15-C10-C2-N1= 23.74          C15-C10-C2-C3=204.56          
           -------------------------------------------------
          |                Final Singlepoint                |
           -------------------------------------------------

          ...................................................
          :                      SETUP                      :
          :.................................................:
          :  # basis functions                  77          :
          :  # atomic orbitals                  76          :
          :  # shells                           40          :
          :  # electrons                        80          :
          :  max. iterations                   250          :
          :  Hamiltonian                  GFN2-xTB          :
          :  restarted?                      false          :
          :  GBSA solvation                  false          :
          :  PC potential                    false          :
          :  electronic temp.          300.0000000     K    :
          :  accuracy                    1.0000000          :
          :  -> integral cutoff          0.2500000E+02      :
          :  -> integral neglect         0.1000000E-07      :
          :  -> SCF convergence          0.1000000E-05 Eh   :
          :  -> wf. convergence          0.1000000E-03 e    :
          :  Broyden damping             0.4000000          :
          :  net charge                          0          :
          :  unpaired electrons                  0          :
          ...................................................

 iter      E             dE          RMSdq      gap      omega  full diag
   1    -46.2538281 -0.462538E+02  0.130E-04    1.92       0.0  T
   2    -46.2538281 -0.584706E-10  0.980E-05    1.92     212.7  T
   3    -46.2538281 -0.316476E-10  0.805E-05    1.92     259.0  T

   *** convergence criteria satisfied after 3 iterations ***

         #    Occupation            Energy/Eh            Energy/eV
      -------------------------------------------------------------
         1        2.0000           -1.0625774             -28.9142
       ...           ...                  ...                  ...
        34        2.0000           -0.4541401             -12.3578
        35        2.0000           -0.4408749             -11.9968
        36        2.0000           -0.4288048             -11.6684
        37        2.0000           -0.4261586             -11.5964
        38        2.0000           -0.4167810             -11.3412
        39        2.0000           -0.4106443             -11.1742
        40        2.0000           -0.3832110             -10.4277 (HOMO)
        41                         -0.3127197              -8.5095 (LUMO)
        42                         -0.2878550              -7.8329
        43                         -0.2520078              -6.8575
        44                         -0.2429600              -6.6113
        45                         -0.2130681              -5.7979
       ...                                ...                  ...
        76                          0.6843691              18.6226
      -------------------------------------------------------------
                  HL-Gap            0.0704913 Eh            1.9182 eV
             Fermi-level           -0.3479654 Eh           -9.4686 eV

 SCC (total)                   0 d,  0 h,  0 min,  0.007 sec
 SCC setup                      ...        0 min,  0.000 sec (  2.017%)
 Dispersion                     ...        0 min,  0.000 sec (  1.285%)
 classical contributions        ...        0 min,  0.000 sec (  0.225%)
 integral evaluation            ...        0 min,  0.001 sec ( 15.900%)
 iterations                     ...        0 min,  0.003 sec ( 38.374%)
 molecular gradient             ...        0 min,  0.003 sec ( 40.861%)
 printout                       ...        0 min,  0.000 sec (  1.131%)

         :::::::::::::::::::::::::::::::::::::::::::::::::::::
         ::                     SUMMARY                     ::
         :::::::::::::::::::::::::::::::::::::::::::::::::::::
         :: total energy             -45.648975994919 Eh    ::
         :: gradient norm              0.000564558296 Eh/a0 ::
         :: HOMO-LUMO gap              1.918164951369 eV    ::
         ::.................................................::
         :: SCC energy               -46.253916404521 Eh    ::
         :: -> isotropic ES            0.064418502481 Eh    ::
         :: -> anisotropic ES          0.002433525524 Eh    ::
         :: -> anisotropic XC          0.024245120533 Eh    ::
         :: -> dispersion             -0.024745869144 Eh    ::
         :: repulsion energy           0.604940409602 Eh    ::
         :: add. restraining           0.000000000000 Eh    ::
         :: total charge              -0.000000000000 e     ::
         :::::::::::::::::::::::::::::::::::::::::::::::::::::

           -------------------------------------------------
          |                Property Printout                |
           -------------------------------------------------

    * Orbital Energies and Occupations

         #    Occupation            Energy/Eh            Energy/eV
      -------------------------------------------------------------
         1        2.0000           -1.0625774             -28.9142
       ...           ...                  ...                  ...
        28        2.0000           -0.4962947             -13.5049
        29        2.0000           -0.4937359             -13.4352
        30        2.0000           -0.4841681             -13.1749
        31        2.0000           -0.4658525             -12.6765
        32        2.0000           -0.4605596             -12.5325
        33        2.0000           -0.4574779             -12.4486
        34        2.0000           -0.4541401             -12.3578
        35        2.0000           -0.4408749             -11.9968
        36        2.0000           -0.4288048             -11.6684
        37        2.0000           -0.4261586             -11.5964
        38        2.0000           -0.4167810             -11.3412
        39        2.0000           -0.4106443             -11.1742
        40        2.0000           -0.3832110             -10.4277 (HOMO)
        41                         -0.3127197              -8.5095 (LUMO)
        42                         -0.2878550              -7.8329
        43                         -0.2520078              -6.8575
        44                         -0.2429600              -6.6113
        45                         -0.2130681              -5.7979
        46                         -0.1452172              -3.9516
        47                         -0.1402531              -3.8165
        48                         -0.1051575              -2.8615
        49                          0.0073831               0.2009
        50                          0.0130019               0.3538
        51                          0.0130989               0.3564
       ...                                ...                  ...
        76                          0.6843691              18.6226
      -------------------------------------------------------------
                  HL-Gap            0.0704913 Eh            1.9182 eV
             Fermi-level           -0.3479654 Eh           -9.4686 eV

     #   Z          covCN         q      C6AA      α(0)
     1   7 N        1.842    -0.230    26.889     7.685
     2   6 C        2.978     0.116    25.432     8.272
     3   6 C        2.910    -0.048    29.179     8.858
     4   6 C        2.983     0.087    26.057     8.373
     5   7 N        1.839    -0.215    26.515     7.631
     6   6 C        2.912     0.153    24.681     8.146
     7   6 C        2.695     0.354    20.997     7.500
     8   8 O        0.856    -0.367    21.025     6.148
     9   8 O        1.660    -0.379    20.438     6.103
    10   6 C        2.981     0.010    27.785     8.646
    11   6 C        2.921    -0.034    28.850     8.808
    12   6 C        2.921    -0.025    28.629     8.774
    13   6 C        2.955    -0.035    28.862     8.812
    14   6 C        2.887     0.103    25.710     8.313
    15   6 C        2.963    -0.034    28.854     8.811
    16  17 Cl       0.969    -0.167   104.394    15.631
    17   1 H        0.926     0.065     2.137     2.286
    18   1 H        0.925     0.061     2.185     2.312
    19   1 H        0.804     0.335     0.624     1.241
    20   1 H        0.926     0.049     2.333     2.389
    21   1 H        0.926     0.053     2.280     2.361
    22   1 H        0.926     0.064     2.155     2.296
    23   1 H        0.926     0.082     1.961     2.190

 Mol. C6AA /au·bohr⁶  :       9224.163309
 Mol. C8AA /au·bohr⁸  :     244292.655789
 Mol. α(0) /au        :        151.585338


Wiberg/Mayer (AO) data.
largest (>0.10) Wiberg bond orders for each atom

 ---------------------------------------------------------------------------
     #   Z sym  total        # sym  WBO       # sym  WBO       # sym  WBO
 ---------------------------------------------------------------------------
     1   7 N    3.068 --     6 C    1.437     2 C    1.383
     2   6 C    3.975 --     1 N    1.383     3 C    1.361    10 C    1.056
     3   6 C    3.988 --     4 C    1.415     2 C    1.361    17 H    0.961
                             6 C    0.106
     4   6 C    3.979 --     3 C    1.415     5 N    1.389     7 C    0.968
     5   7 N    3.064 --     6 C    1.433     4 C    1.389
     6   6 C    3.963 --     1 N    1.437     5 N    1.433    18 H    0.954
                             3 C    0.106
     7   6 C    3.920 --     8 O    1.784     9 O    1.121     4 C    0.968
     8   8 O    2.076 --     7 C    1.784     9 O    0.181
     9   8 O    2.195 --     7 C    1.121    19 H    0.863     8 O    0.181
    10   6 C    3.989 --    11 C    1.381    15 C    1.378     2 C    1.056
    11   6 C    3.991 --    12 C    1.448    10 C    1.381    20 H    0.966
    12   6 C    3.990 --    11 C    1.448    13 C    1.436    21 H    0.968
                            15 C    0.104
    13   6 C    3.980 --    12 C    1.436    14 C    1.393    22 H    0.967
    14   6 C    3.921 --    15 C    1.420    13 C    1.393    16 Cl   0.980
    15   6 C    3.986 --    14 C    1.420    10 C    1.378    23 H    0.961
                            12 C    0.104
    16  17 Cl   1.118 --    14 C    0.980
    17   1 H    0.996 --     3 C    0.961
    18   1 H    0.995 --     6 C    0.954
    19   1 H    0.887 --     9 O    0.863
    20   1 H    0.997 --    11 C    0.966
    21   1 H    0.997 --    12 C    0.968
    22   1 H    0.996 --    13 C    0.967
    23   1 H    0.993 --    15 C    0.961
 ---------------------------------------------------------------------------

Topologies differ in total number of bonds
Writing topology from bond orders to xtbtopo.mol

molecular dipole:
                 x           y           z       tot (Debye)
 q only:        0.308      -1.346      -0.467
   full:        0.326      -1.711      -0.475       4.589
molecular quadrupole (traceless):
                xx          xy          yy          xz          yz          zz
 q only:      -14.173       2.526      15.098      -7.225       5.300      -0.925
  q+dip:      -11.813       4.903      14.482      -4.585       7.753      -2.668
   full:      -14.056       6.110      13.013      -5.495       5.297       1.043

           -------------------------------------------------
          |                Geometry Summary                 |
           -------------------------------------------------

      molecular mass/u    :      234.6388340
   center of mass at/Å    :        1.4591036      -1.3086588       0.2619715
  moments of inertia/u·Å² :        0.3975901E+03   0.2426652E+04   0.2763291E+04
rotational constants/cm⁻¹ :        0.4239953E-01   0.6946869E-02   0.6100564E-02

 * 22 selected distances

     #   Z          #   Z                                           value/Å
     1   7 N        2   6 C                                       1.3331232
     2   6 C        3   6 C                                       1.3991641
     3   6 C        4   6 C                                       1.3896600
     4   6 C        5   7 N                                       1.3298374
     1   7 N        6   6 C                                       1.3176002
     5   7 N        6   6 C                                       1.3174723
     7   6 C        8   8 O                                       1.1983059
     7   6 C        9   8 O                                       1.3431194
    10   6 C       11   6 C                                       1.3934897
    11   6 C       12   6 C                                       1.3829406
    12   6 C       13   6 C                                       1.3843368
    13   6 C       14   6 C                                       1.3873594
    10   6 C       15   6 C                                       1.3939147
    14   6 C       15   6 C                                       1.3821821
    14   6 C       16  17 Cl                                      1.7276524 (max)
     3   6 C       17   1 H                                       1.0763842
     6   6 C       18   1 H                                       1.0822507
     9   8 O       19   1 H                                       0.9706009 (min)
    11   6 C       20   1 H                                       1.0789542
    12   6 C       21   1 H                                       1.0794006
    13   6 C       22   1 H                                       1.0784727
    15   6 C       23   1 H                                       1.0779513

 * 6 distinct bonds (by element types)

   Z      Z             #   av. dist./Å        max./Å        min./Å
   1 H    6 C           6     1.0789023     1.0822507     1.0763842
   6 C    6 C           8     1.3891309     1.3991641     1.3821821
   6 C    7 N           4     1.3245083     1.3331232     1.3174723
   1 H    8 O           1     0.9706009     0.9706009     0.9706009
   6 C    8 O           2     1.2707127     1.3431194     1.1983059
   6 C   17 Cl          1     1.7276524     1.7276524     1.7276524


optimized geometry written to: xtbopt.xyz


           -------------------------------------------------
          | TOTAL ENERGY              -45.648975994919 Eh   |
          | GRADIENT NORM               0.000564558296 Eh/α |
          | HOMO-LUMO GAP               1.918164951369 eV   |
           -------------------------------------------------

------------------------------------------------------------------------
 * finished run on 2024/12/17 at 14:08:03.110     
------------------------------------------------------------------------
 total:
 * wall-time:     0 d,  0 h,  0 min,  0.285 sec
 *  cpu-time:     0 d,  0 h,  0 min,  2.222 sec
 * ratio c/w:     7.790 speedup
 SCF:
 * wall-time:     0 d,  0 h,  0 min,  0.019 sec
 *  cpu-time:     0 d,  0 h,  0 min,  0.151 sec
 * ratio c/w:     7.941 speedup
 ANC optimizer:
 * wall-time:     0 d,  0 h,  0 min,  0.249 sec
 *  cpu-time:     0 d,  0 h,  0 min,  1.947 sec
 * ratio c/w:     7.821 speedup

