      -----------------------------------------------------------      
     |                   =====================                   |     
     |                           x T B                           |     
     |                   =====================                   |     
     |                         S. Grimme                         |     
     |          Mulliken Center for Theoretical Chemistry        |     
     |                    University of Bonn                     |     
      -----------------------------------------------------------      

   * xtb version 6.7.1 (edcfbbe) compiled by 'conda@3ef47c1a292c' on 2024-11-25

   xtb is free software: you can redistribute it and/or modify it under
   the terms of the GNU Lesser General Public License as published by
   the Free Software Foundation, either version 3 of the License, or
   (at your option) any later version.
   
   xtb is distributed in the hope that it will be useful,
   but WITHOUT ANY WARRANTY; without even the implied warranty of
   MERCHANTABILITY or FITNESS FOR A PARTICULAR PURPOSE.  See the
   GNU Lesser General Public License for more details.
   
   Cite this work as:
   * C. Bannwarth, E. Caldeweyher, S. Ehlert, A. Hansen, P. Pracht,
     J. Seibert, S. Spicher, S. Grimme, WIREs Comput. Mol. Sci., 2020, 11,
     e01493. DOI: 10.1002/wcms.1493
   
   for GFN2-xTB:
   * C. Bannwarth, S. Ehlert and S. Grimme., J. Chem. Theory Comput., 2019,
     15, 1652-1671. DOI: 10.1021/acs.jctc.8b01176
   for GFN1-xTB:
   * S. Grimme, C. Bannwarth, P. Shushkov, J. Chem. Theory Comput., 2017,
     13, 1989-2009. DOI: 10.1021/acs.jctc.7b00118
   for GFN0-xTB:
   * P. Pracht, E. Caldeweyher, S. Ehlert, S. Grimme, ChemRxiv, 2019, preprint.
     DOI: 10.26434/chemrxiv.8326202.v1
   for GFN-FF:
   * S. Spicher and S. Grimme, Angew. Chem. Int. Ed., 2020, 59, 15665-15673.
     DOI: 10.1002/anie.202004239
   
   for ALPB and GBSA implicit solvation:
   * S. Ehlert, M. Stahn, S. Spicher, S. Grimme, J. Chem. Theory Comput.,
     2021, 17, 4250-4261. DOI: 10.1021/acs.jctc.1c00471
   
   for ddCOSMO and CPCM-X implicit solvation:
   * M. Stahn, S. Ehlert, S. Grimme, J. Phys. Chem. A,
     2023, XX, XXXX-XXXX. DOI: 10.1021/acs.jpca.3c04382
   
   for DFT-D4:
   * E. Caldeweyher, C. Bannwarth and S. Grimme, J. Chem. Phys., 2017,
     147, 034112. DOI: 10.1063/1.4993215
   * E. Caldeweyher, S. Ehlert, A. Hansen, H. Neugebauer, S. Spicher,
     C. Bannwarth and S. Grimme, J. Chem. Phys., 2019, 150, 154122.
     DOI: 10.1063/1.5090222
   * E. Caldeweyher, J.-M. Mewes, S. Ehlert and S. Grimme, Phys. Chem. Chem. Phys.
     2020, 22, 8499-8512. DOI: 10.1039/D0CP00502A
   
   for sTDA-xTB:
   * S. Grimme and C. Bannwarth, J. Chem. Phys., 2016, 145, 054103.
     DOI: 10.1063/1.4959605
   
   in the mass-spec context:
   * V. Asgeirsson, C. Bauer and S. Grimme, Chem. Sci., 2017, 8, 4879.
     DOI: 10.1039/c7sc00601b
   * J. Koopman and S. Grimme, ACS Omega 2019, 4, 12, 15120-15133.
     DOI: 10.1021/acsomega.9b02011
   
   for metadynamics refer to:
   * S. Grimme, J. Chem. Theory Comput., 2019, 155, 2847-2862
     DOI: 10.1021/acs.jctc.9b00143
   
   for SPH calculations refer to:
   * S. Spicher and S. Grimme, J. Chem. Theory Comput., 2021, 17, 1701-1714
     DOI: 10.1021/acs.jctc.0c01306
   
   for ONIOM refer to:
   * C. Plett, A. Katbashev, S. Ehlert, S. Grimme, M. Bursch,
     Phys. Chem. Chem. Phys., 2023, 25, 17860-17868. DOI: 10.1039/D3CP02178E
   
   for DIPRO refer to:
   * J. Kohn, N. Gildemeister, S. Grimme, D. Fazzi, A. Hansen,
     J. Chem. Phys., 2023, just accepted.
   
   for PTB refer to:
   * S. Grimme, M. Mueller, A. Hansen, J. Chem. Phys., 2023, 158, 124111.
     DOI: 10.1063/5.0137838
   
   with help from (in alphabetical order)
   P. Atkinson, C. Bannwarth, F. Bohle, G. Brandenburg, E. Caldeweyher
   M. Checinski, S. Dohm, S. Ehlert, S. Ehrlich, I. Gerasimov, C. Hölzer
   A. Katbashev, J. Kohn, J. Koopman, C. Lavigne, S. Lehtola, F. März, M. Müller,
   F. Musil, H. Neugebauer, J. Pisarek, C. Plett, P. Pracht, F. Pultar,
   J. Seibert, P. Shushkov, S. Spicher, M. Stahn, M. Steiner, T. Strunk,
   J. Stückrath, T. Rose, and J. Unsleber
   
 * started run on 2024/12/17 at 14:07:57.392     
   ID    Z sym.   atoms
    1    7 N      1, 5
    2    6 C      2-4, 6, 7, 10-15, 18-20
    3    8 O      8, 9, 17
    4   17 Cl     16
    5    1 H      21-31

           -------------------------------------------------
          |                Calculation Setup                |
           -------------------------------------------------

          program call               : xtb K006.xyz --opt --namespace K006
          calculation namespace      : K006
          coordinate file            : K006.xyz
          omp threads                :                     8


           -------------------------------------------------
          |                 G F N 2 - x T B                 |
           -------------------------------------------------

        Reference                      10.1021/acs.jctc.8b01176
      * Hamiltonian:
        H0-scaling (s, p, d)           1.850000    2.230000    2.230000
        zeta-weighting                 0.500000
      * Dispersion:
        s8                             2.700000
        a1                             0.520000
        a2                             5.000000
        s9                             5.000000
      * Repulsion:
        kExp                           1.500000    1.000000
        rExp                           1.000000
      * Coulomb:
        alpha                          2.000000
        third order                    shell-resolved
        anisotropic                    true
        a3                             3.000000
        a5                             4.000000
        cn-shift                       1.200000
        cn-exp                         4.000000
        max-rad                        5.000000


          ...................................................
          :                      SETUP                      :
          :.................................................:
          :  # basis functions                  97          :
          :  # atomic orbitals                  96          :
          :  # shells                           52          :
          :  # electrons                       102          :
          :  max. iterations                   250          :
          :  Hamiltonian                  GFN2-xTB          :
          :  restarted?                      false          :
          :  GBSA solvation                  false          :
          :  PC potential                    false          :
          :  electronic temp.          300.0000000     K    :
          :  accuracy                    1.0000000          :
          :  -> integral cutoff          0.2500000E+02      :
          :  -> integral neglect         0.1000000E-07      :
          :  -> SCF convergence          0.1000000E-05 Eh   :
          :  -> wf. convergence          0.1000000E-03 e    :
          :  Broyden damping             0.4000000          :
          :  net charge                          0          :
          :  unpaired electrons                  0          :
          ...................................................

 iter      E             dE          RMSdq      gap      omega  full diag
   1    -58.7763339 -0.587763E+02  0.491E+00    2.30       0.0  T
   2    -58.8357675 -0.594336E-01  0.287E+00    2.28       1.0  T
   3    -58.8316260  0.414144E-02  0.126E+00    2.01       1.0  T
   4    -58.8443981 -0.127721E-01  0.293E-01    1.93       1.0  T
   5    -58.8459659 -0.156784E-02  0.112E-01    1.90       1.0  T
   6    -58.8462302 -0.264284E-03  0.490E-02    1.90       1.0  T
   7    -58.8462363 -0.609363E-05  0.255E-02    1.90       1.0  T
   8    -58.8462475 -0.111896E-04  0.144E-02    1.90       1.2  T
   9    -58.8462492 -0.168171E-05  0.962E-03    1.90       1.9  T
  10    -58.8462500 -0.770298E-06  0.619E-03    1.90       2.9  T
  11    -58.8462505 -0.537387E-06  0.335E-03    1.90       5.4  T
  12    -58.8462506 -0.123344E-06  0.151E-03    1.90      11.9  T
  13    -58.8462506 -0.289405E-07  0.797E-04    1.90      22.5  T
  14    -58.8462506 -0.511417E-08  0.520E-04    1.90      34.5  T

   *** convergence criteria satisfied after 14 iterations ***

         #    Occupation            Energy/Eh            Energy/eV
      -------------------------------------------------------------
         1        2.0000           -1.0599783             -28.8435
       ...           ...                  ...                  ...
        45        2.0000           -0.4338183             -11.8048
        46        2.0000           -0.4315929             -11.7442
        47        2.0000           -0.4251647             -11.5693
        48        2.0000           -0.4232604             -11.5175
        49        2.0000           -0.4148657             -11.2891
        50        2.0000           -0.4016888             -10.9305
        51        2.0000           -0.3884784             -10.5710 (HOMO)
        52                         -0.3185451              -8.6681 (LUMO)
        53                         -0.2801488              -7.6232
        54                         -0.2571207              -6.9966
        55                         -0.2533427              -6.8938
        56                         -0.2306643              -6.2767
       ...                                ...                  ...
        96                          0.6327663              17.2184
      -------------------------------------------------------------
                  HL-Gap            0.0699333 Eh            1.9030 eV
             Fermi-level           -0.3535117 Eh           -9.6195 eV

 SCC (total)                   0 d,  0 h,  0 min,  0.028 sec
 SCC setup                      ...        0 min,  0.000 sec (  0.593%)
 Dispersion                     ...        0 min,  0.000 sec (  1.220%)
 classical contributions        ...        0 min,  0.000 sec (  0.184%)
 integral evaluation            ...        0 min,  0.003 sec (  9.896%)
 iterations                     ...        0 min,  0.021 sec ( 73.796%)
 molecular gradient             ...        0 min,  0.004 sec ( 13.882%)
 printout                       ...        0 min,  0.000 sec (  0.371%)

         :::::::::::::::::::::::::::::::::::::::::::::::::::::
         ::                     SUMMARY                     ::
         :::::::::::::::::::::::::::::::::::::::::::::::::::::
         :: total energy             -58.143401640080 Eh    ::
         :: gradient norm              0.087021785308 Eh/a0 ::
         :: HOMO-LUMO gap              1.902981994541 eV    ::
         ::.................................................::
         :: SCC energy               -58.846301237797 Eh    ::
         :: -> isotropic ES            0.080823551240 Eh    ::
         :: -> anisotropic ES          0.006849806806 Eh    ::
         :: -> anisotropic XC          0.027740377832 Eh    ::
         :: -> dispersion             -0.033051030167 Eh    ::
         :: repulsion energy           0.702899597716 Eh    ::
         :: add. restraining           0.000000000000 Eh    ::
         :: total charge               0.000000000000 e     ::
         :::::::::::::::::::::::::::::::::::::::::::::::::::::

      ----------------------------------------------------------- 
     |                   =====================                   |
     |                        A N C O P T                        |
     |                   =====================                   |
     |               Approximate Normal Coordinate               |
     |                Rational Function Optimizer                |
      ----------------------------------------------------------- 
      ----------------------------------------------------------- 
     |                   =====================                   |
     |                        A N C O P T                        |
     |                   =====================                   |
     |               Approximate Normal Coordinate               |
     |                Rational Function Optimizer                |
      ----------------------------------------------------------- 

          ...................................................
          :                      SETUP                      :
          :.................................................:
          :   optimization level            normal          :
          :   max. optcycles                   200          :
          :   ANC micro-cycles                  20          :
          :   degrees of freedom                87          :
          :.................................................:
          :   RF solver                   davidson          :
          :   write xtbopt.log                true          :
          :   linear?                        false          :
          :   energy convergence         0.5000000E-05 Eh   :
          :   grad. convergence          0.1000000E-02 Eh/α :
          :   maxmium RF displ.          1.0000000          :
          :   Hlow (freq-cutoff)         0.1000000E-01      :
          :   Hmax (freq-cutoff)         5.0000000          :
          :   S6 in model hess.         20.0000000          :
          ...................................................

generating ANC from exact Hessian ...
Using Lindh-Hessian (1995)
 Shifting diagonal of input Hessian by    9.5835517460655297E-003
 Lowest  eigenvalues of input Hessian
    0.000000    0.000000    0.000000    0.000000    0.000000    0.000000
    0.010000    0.010163    0.010965    0.011540    0.012070    0.012821
    0.015713    0.017010    0.020098    0.021432    0.023692    0.024187
 Highest eigenvalues
    1.950325    1.974817    2.035214    2.075839    2.119032    2.334006


........................................................................
.............................. CYCLE    1 ..............................
........................................................................

 iter      E             dE          RMSdq      gap      omega  full diag
   1    -58.8462507 -0.588463E+02  0.321E-04    1.90       0.0  T
   2    -58.8462507 -0.520295E-09  0.260E-04    1.90      69.2  T
   3    -58.8462507 -0.288765E-09  0.213E-04    1.90      84.4  T
     SCC iter.                  ...        0 min,  0.004 sec
     gradient                   ...        0 min,  0.004 sec
 * total energy  :   -58.1434016 Eh     change       -0.2931692E-08 Eh
   gradient norm :     0.0870199 Eh/α   predicted     0.0000000E+00 (-100.00%)
   displ. norm   :     0.1811386 α      lambda       -0.9601573E-02
   maximum displ.:     0.0833126 α      in ANC's #42, #35, #28, ...

........................................................................
.............................. CYCLE    2 ..............................
........................................................................

 iter      E             dE          RMSdq      gap      omega  full diag
   1    -58.8827884 -0.588828E+02  0.169E-01    1.95       0.0  T
   2    -58.8828759 -0.875437E-04  0.111E-01    1.95       1.0  T
   3    -58.8828596  0.163276E-04  0.534E-02    1.94       1.0  T
   4    -58.8829053 -0.457302E-04  0.149E-02    1.94       1.2  T
   5    -58.8829094 -0.409205E-05  0.646E-03    1.94       2.8  T
   6    -58.8829097 -0.267564E-06  0.479E-03    1.94       3.7  T
   7    -58.8829099 -0.157829E-06  0.330E-03    1.94       5.4  T
   8    -58.8829100 -0.137557E-06  0.221E-03    1.94       8.1  T
   9    -58.8829101 -0.626385E-07  0.105E-03    1.94      17.2  T
  10    -58.8829101 -0.116032E-07  0.537E-04    1.94      33.4  T
  11    -58.8829101 -0.348896E-08  0.240E-04    1.94      74.9  T
     SCC iter.                  ...        0 min,  0.014 sec
     gradient                   ...        0 min,  0.004 sec
 * total energy  :   -58.1498912 Eh     change       -0.6489551E-02 Eh
   gradient norm :     0.0311893 Eh/α   predicted    -0.4958628E-02 ( -23.59%)
   displ. norm   :     0.1539142 α      lambda       -0.2365091E-02
   maximum displ.:     0.0613734 α      in ANC's #35, #2, #15, ...

........................................................................
.............................. CYCLE    3 ..............................
........................................................................

 iter      E             dE          RMSdq      gap      omega  full diag
   1    -58.8965143 -0.588965E+02  0.113E-01    1.96       0.0  T
   2    -58.8965513 -0.370254E-04  0.722E-02    1.96       1.0  T
   3    -58.8965434  0.788729E-05  0.357E-02    1.96       1.0  T
   4    -58.8965638 -0.203689E-04  0.995E-03    1.96       1.8  T
   5    -58.8965657 -0.195818E-05  0.447E-03    1.96       4.0  T
   6    -58.8965658 -0.125712E-06  0.321E-03    1.96       5.6  T
   7    -58.8965659 -0.603659E-07  0.228E-03    1.96       7.9  T
   8    -58.8965660 -0.673006E-07  0.143E-03    1.96      12.6  T
   9    -58.8965660 -0.245529E-07  0.780E-04    1.96      23.0  T
  10    -58.8965660 -0.656161E-08  0.346E-04    1.96      51.9  T
     SCC iter.                  ...        0 min,  0.013 sec
     gradient                   ...        0 min,  0.004 sec
 * total energy  :   -58.1512094 Eh     change       -0.1318248E-02 Eh
   gradient norm :     0.0084001 Eh/α   predicted    -0.1210674E-02 (  -8.16%)
   displ. norm   :     0.0920890 α      lambda       -0.2494387E-03
   maximum displ.:     0.0564837 α      in ANC's #2, #5, #1, ...

........................................................................
.............................. CYCLE    4 ..............................
........................................................................

 iter      E             dE          RMSdq      gap      omega  full diag
   1    -58.8953957 -0.588954E+02  0.359E-02    1.97       0.0  T
   2    -58.8953982 -0.243615E-05  0.217E-02    1.96       1.0  T
   3    -58.8953967  0.150180E-05  0.996E-03    1.96       1.8  T
   4    -58.8953989 -0.220836E-05  0.255E-03    1.96       7.0  T
   5    -58.8953990 -0.108994E-06  0.139E-03    1.96      12.9  T
   6    -58.8953990 -0.185348E-07  0.925E-04    1.96      19.4  T
   7    -58.8953990 -0.518315E-08  0.613E-04    1.96      29.3  T
     SCC iter.                  ...        0 min,  0.009 sec
     gradient                   ...        0 min,  0.004 sec
 * total energy  :   -58.1513987 Eh     change       -0.1892692E-03 Eh
   gradient norm :     0.0059571 Eh/α   predicted    -0.1257823E-03 ( -33.54%)
   displ. norm   :     0.1725884 α      lambda       -0.2556691E-03
   maximum displ.:     0.1162587 α      in ANC's #2, #5, #1, ...

........................................................................
.............................. CYCLE    5 ..............................
........................................................................

 iter      E             dE          RMSdq      gap      omega  full diag
   1    -58.8930029 -0.588930E+02  0.547E-02    1.97       0.0  T
   2    -58.8930075 -0.453354E-05  0.326E-02    1.97       1.0  T
   3    -58.8930038  0.368251E-05  0.150E-02    1.97       1.2  T
   4    -58.8930090 -0.520466E-05  0.350E-03    1.97       5.1  T
   5    -58.8930091 -0.151275E-06  0.210E-03    1.97       8.6  T
   6    -58.8930092 -0.399913E-07  0.142E-03    1.97      12.7  T
   7    -58.8930092 -0.142587E-07  0.904E-04    1.97      19.9  T
   8    -58.8930092 -0.836189E-08  0.580E-04    1.97      31.0  T
     SCC iter.                  ...        0 min,  0.010 sec
     gradient                   ...        0 min,  0.004 sec
 * total energy  :   -58.1515635 Eh     change       -0.1647796E-03 Eh
   gradient norm :     0.0036918 Eh/α   predicted    -0.1316472E-03 ( -20.11%)
   displ. norm   :     0.1436372 α      lambda       -0.1048676E-03
   maximum displ.:     0.1010931 α      in ANC's #2, #5, #1, ...

........................................................................
.............................. CYCLE    6 ..............................
........................................................................

 iter      E             dE          RMSdq      gap      omega  full diag
   1    -58.8926453 -0.588926E+02  0.382E-02    1.98       0.0  T
   2    -58.8926469 -0.160327E-05  0.225E-02    1.97       1.0  T
   3    -58.8926451  0.178874E-05  0.957E-03    1.97       1.9  T
   4    -58.8926475 -0.239543E-05  0.218E-03    1.97       8.2  T
   5    -58.8926476 -0.529366E-07  0.135E-03    1.97      13.3  T
   6    -58.8926476 -0.149132E-07  0.889E-04    1.97      20.2  T
   7    -58.8926476 -0.626446E-08  0.565E-04    1.97      31.8  T
     SCC iter.                  ...        0 min,  0.009 sec
     gradient                   ...        0 min,  0.004 sec
 * total energy  :   -58.1516483 Eh     change       -0.8482581E-04 Eh
   gradient norm :     0.0038610 Eh/α   predicted    -0.5352149E-04 ( -36.90%)
   displ. norm   :     0.2098880 α      lambda       -0.1427305E-03
   maximum displ.:     0.1394965 α      in ANC's #2, #5, #1, ...

........................................................................
.............................. CYCLE    7 ..............................
........................................................................

 iter      E             dE          RMSdq      gap      omega  full diag
   1    -58.8931261 -0.588931E+02  0.541E-02    1.98       0.0  T
   2    -58.8931284 -0.234833E-05  0.318E-02    1.98       1.0  T
   3    -58.8931249  0.357271E-05  0.126E-02    1.98       1.4  T
   4    -58.8931294 -0.455120E-05  0.277E-03    1.98       6.5  T
   5    -58.8931295 -0.816653E-07  0.173E-03    1.98      10.4  T
   6    -58.8931295 -0.217436E-07  0.115E-03    1.98      15.7  T
   7    -58.8931295 -0.112742E-07  0.717E-04    1.98      25.1  T
   8    -58.8931295 -0.438470E-08  0.465E-04    1.98      38.6  T
     SCC iter.                  ...        0 min,  0.010 sec
     gradient                   ...        0 min,  0.004 sec
 * total energy  :   -58.1517745 Eh     change       -0.1262216E-03 Eh
   gradient norm :     0.0050793 Eh/α   predicted    -0.7450946E-04 ( -40.97%)
   displ. norm   :     0.3335686 α      lambda       -0.2297414E-03
   maximum displ.:     0.2164083 α      in ANC's #2, #5, #4, ...

........................................................................
.............................. CYCLE    8 ..............................
........................................................................

 iter      E             dE          RMSdq      gap      omega  full diag
   1    -58.8937528 -0.588938E+02  0.857E-02    1.98       0.0  T
   2    -58.8937579 -0.515207E-05  0.503E-02    1.98       1.0  T
   3    -58.8937491  0.888399E-05  0.193E-02    1.98       1.0  T
   4    -58.8937602 -0.111103E-04  0.408E-03    1.98       4.4  T
   5    -58.8937603 -0.179020E-06  0.247E-03    1.98       7.3  T
   6    -58.8937604 -0.426685E-07  0.161E-03    1.98      11.2  T
   7    -58.8937604 -0.227104E-07  0.980E-04    1.98      18.3  T
   8    -58.8937604 -0.752897E-08  0.635E-04    1.98      28.3  T
     SCC iter.                  ...        0 min,  0.010 sec
     gradient                   ...        0 min,  0.004 sec
 * total energy  :   -58.1519805 Eh     change       -0.2059997E-03 Eh
   gradient norm :     0.0070090 Eh/α   predicted    -0.1276560E-03 ( -38.03%)
   displ. norm   :     0.5152860 α      lambda       -0.3526991E-03
   maximum displ.:     0.3308859 α      in ANC's #2, #5, #4, ...

........................................................................
.............................. CYCLE    9 ..............................
........................................................................

 iter      E             dE          RMSdq      gap      omega  full diag
   1    -58.8929414 -0.588929E+02  0.135E-01    1.98       0.0  T
   2    -58.8929542 -0.127884E-04  0.791E-02    1.98       1.0  T
   3    -58.8929331  0.210142E-04  0.304E-02    1.98       1.0  T
   4    -58.8929595 -0.263391E-04  0.632E-03    1.98       2.8  T
   5    -58.8929599 -0.444718E-06  0.375E-03    1.98       4.8  T
   6    -58.8929600 -0.100741E-06  0.242E-03    1.98       7.4  T
   7    -58.8929601 -0.511439E-07  0.146E-03    1.98      12.3  T
   8    -58.8929601 -0.163670E-07  0.946E-04    1.98      19.0  T
   9    -58.8929601 -0.826956E-08  0.498E-04    1.98      36.0  T
     SCC iter.                  ...        0 min,  0.011 sec
     gradient                   ...        0 min,  0.004 sec
 * total energy  :   -58.1522797 Eh     change       -0.2992072E-03 Eh
   gradient norm :     0.0092379 Eh/α   predicted    -0.2231731E-03 ( -25.41%)
   displ. norm   :     0.6093940 α      lambda       -0.4267436E-03
   maximum displ.:     0.3952684 α      in ANC's #2, #5, #4, ...

........................................................................
.............................. CYCLE   10 ..............................
........................................................................

 iter      E             dE          RMSdq      gap      omega  full diag
   1    -58.8911526 -0.588912E+02  0.162E-01    1.97       0.0  T
   2    -58.8911716 -0.189175E-04  0.954E-02    1.97       1.0  T
   3    -58.8911422  0.293565E-04  0.370E-02    1.97       1.0  T
   4    -58.8911793 -0.370467E-04  0.738E-03    1.97       2.4  T
   5    -58.8911799 -0.614540E-06  0.427E-03    1.97       4.2  T
   6    -58.8911800 -0.139587E-06  0.268E-03    1.97       6.7  T
   7    -58.8911801 -0.634200E-07  0.159E-03    1.97      11.3  T
   8    -58.8911801 -0.187217E-07  0.104E-03    1.97      17.2  T
   9    -58.8911801 -0.955396E-08  0.579E-04    1.97      31.0  T
  10    -58.8911801 -0.300174E-08  0.221E-04    1.97      81.4  T
     SCC iter.                  ...        0 min,  0.019 sec
     gradient                   ...        0 min,  0.004 sec
 * total energy  :   -58.1525930 Eh     change       -0.3132864E-03 Eh
   gradient norm :     0.0112570 Eh/α   predicted    -0.2926100E-03 (  -6.60%)
   displ. norm   :     0.3581824 α      lambda       -0.4582342E-03
   maximum displ.:     0.2343674 α      in ANC's #2, #5, #4, ...

........................................................................
.............................. CYCLE   11 ..............................
........................................................................

 iter      E             dE          RMSdq      gap      omega  full diag
   1    -58.8948270 -0.588948E+02  0.105E-01    1.96       0.0  T
   2    -58.8948389 -0.118485E-04  0.621E-02    1.96       1.0  T
   3    -58.8948251  0.137506E-04  0.275E-02    1.96       1.0  T
   4    -58.8948435 -0.183201E-04  0.510E-03    1.96       3.5  T
   5    -58.8948438 -0.360551E-06  0.271E-03    1.96       6.6  T
   6    -58.8948439 -0.790441E-07  0.160E-03    1.96      11.2  T
   7    -58.8948439 -0.192622E-07  0.958E-04    1.96      18.7  T
   8    -58.8948439 -0.759478E-08  0.619E-04    1.96      29.0  T
     SCC iter.                  ...        0 min,  0.010 sec
     gradient                   ...        0 min,  0.004 sec
 * total energy  :   -58.1529153 Eh     change       -0.3222711E-03 Eh
   gradient norm :     0.0070040 Eh/α   predicted    -0.2585121E-03 ( -19.78%)
   displ. norm   :     0.5292220 α      lambda       -0.3859654E-03
   maximum displ.:     0.3486766 α      in ANC's #2, #5, #4, ...

........................................................................
.............................. CYCLE   12 ..............................
........................................................................

 iter      E             dE          RMSdq      gap      omega  full diag
   1    -58.8915305 -0.588915E+02  0.154E-01    1.95       0.0  T
   2    -58.8915520 -0.215191E-04  0.911E-02    1.95       1.0  T
   3    -58.8915261  0.258779E-04  0.361E-02    1.95       1.0  T
   4    -58.8915592 -0.330364E-04  0.738E-03    1.95       2.4  T
   5    -58.8915599 -0.708527E-06  0.406E-03    1.95       4.4  T
   6    -58.8915600 -0.145284E-06  0.267E-03    1.95       6.7  T
   7    -58.8915601 -0.619497E-07  0.161E-03    1.95      11.1  T
   8    -58.8915601 -0.204071E-07  0.102E-03    1.95      17.7  T
   9    -58.8915601 -0.879493E-08  0.586E-04    1.95      30.7  T
  10    -58.8915601 -0.330368E-08  0.223E-04    1.95      80.4  T
     SCC iter.                  ...        0 min,  0.014 sec
     gradient                   ...        0 min,  0.007 sec
 * total energy  :   -58.1531930 Eh     change       -0.2776736E-03 Eh
   gradient norm :     0.0089872 Eh/α   predicted    -0.2470317E-03 ( -11.04%)
   displ. norm   :     0.3386324 α      lambda       -0.5236440E-03
   maximum displ.:     0.2091531 α      in ANC's #2, #5, #4, ...

........................................................................
.............................. CYCLE   13 ..............................
........................................................................

 iter      E             dE          RMSdq      gap      omega  full diag
   1    -58.8957655 -0.588958E+02  0.115E-01    1.96       0.0  T
   2    -58.8957970 -0.315124E-04  0.701E-02    1.96       1.0  T
   3    -58.8957864  0.105400E-04  0.334E-02    1.96       1.0  T
   4    -58.8958050 -0.185680E-04  0.791E-03    1.96       2.3  T
   5    -58.8958062 -0.118254E-05  0.369E-03    1.96       4.9  T
   6    -58.8958064 -0.178684E-06  0.237E-03    1.96       7.6  T
   7    -58.8958064 -0.364629E-07  0.162E-03    1.96      11.1  T
   8    -58.8958064 -0.248751E-07  0.982E-04    1.96      18.3  T
   9    -58.8958064 -0.939887E-08  0.548E-04    1.96      32.7  T
     SCC iter.                  ...        0 min,  0.015 sec
     gradient                   ...        0 min,  0.006 sec
 * total energy  :   -58.1534858 Eh     change       -0.2928607E-03 Eh
   gradient norm :     0.0096321 Eh/α   predicted    -0.2918450E-03 (  -0.35%)
   displ. norm   :     0.5362247 α      lambda       -0.3914186E-03
   maximum displ.:     0.3491463 α      in ANC's #2, #5, #4, ...

........................................................................
.............................. CYCLE   14 ..............................
........................................................................

 iter      E             dE          RMSdq      gap      omega  full diag
   1    -58.8897535 -0.588898E+02  0.158E-01    1.94       0.0  T
   2    -58.8897735 -0.200027E-04  0.928E-02    1.94       1.0  T
   3    -58.8897545  0.190764E-04  0.339E-02    1.94       1.0  T
   4    -58.8897796 -0.251695E-04  0.720E-03    1.94       2.5  T
   5    -58.8897802 -0.571907E-06  0.407E-03    1.94       4.4  T
   6    -58.8897803 -0.988584E-07  0.262E-03    1.94       6.9  T
   7    -58.8897804 -0.701066E-07  0.155E-03    1.94      11.6  T
   8    -58.8897804 -0.184334E-07  0.103E-03    1.94      17.5  T
   9    -58.8897804 -0.975184E-08  0.553E-04    1.94      32.5  T
  10    -58.8897804 -0.260906E-08  0.238E-04    1.94      75.5  T
     SCC iter.                  ...        0 min,  0.013 sec
     gradient                   ...        0 min,  0.004 sec
 * total energy  :   -58.1537210 Eh     change       -0.2351627E-03 Eh
   gradient norm :     0.0144957 Eh/α   predicted    -0.2519852E-03 (   7.15%)
   displ. norm   :     0.2490240 α      lambda       -0.4335141E-03
   maximum displ.:     0.1244302 α      in ANC's #2, #4, #3, ...

........................................................................
.............................. CYCLE   15 ..............................
........................................................................

 iter      E             dE          RMSdq      gap      omega  full diag
   1    -58.8927971 -0.588928E+02  0.707E-02    1.95       0.0  T
   2    -58.8928011 -0.403645E-05  0.413E-02    1.95       1.0  T
   3    -58.8927968  0.433215E-05  0.158E-02    1.95       1.1  T
   4    -58.8928024 -0.561223E-05  0.295E-03    1.95       6.1  T
   5    -58.8928025 -0.119888E-06  0.164E-03    1.95      11.0  T
   6    -58.8928026 -0.178195E-07  0.103E-03    1.95      17.4  T
   7    -58.8928026 -0.107587E-07  0.599E-04    1.95      30.0  T
   8    -58.8928026 -0.259669E-08  0.414E-04    1.95      43.4  T
     SCC iter.                  ...        0 min,  0.010 sec
     gradient                   ...        0 min,  0.004 sec
 * total energy  :   -58.1540557 Eh     change       -0.3346925E-03 Eh
   gradient norm :     0.0102495 Eh/α   predicted    -0.2302148E-03 ( -31.22%)
   displ. norm   :     0.5080771 α      lambda       -0.6590528E-03
   maximum displ.:     0.2476829 α      in ANC's #2, #4, #3, ...

........................................................................
.............................. CYCLE   16 ..............................
........................................................................

 iter      E             dE          RMSdq      gap      omega  full diag
   1    -58.8948709 -0.588949E+02  0.143E-01    1.97       0.0  T
   2    -58.8948814 -0.105091E-04  0.847E-02    1.96       1.0  T
   3    -58.8948664  0.149854E-04  0.255E-02    1.96       1.0  T
   4    -58.8948848 -0.183955E-04  0.508E-03    1.96       3.5  T
   5    -58.8948852 -0.356172E-06  0.284E-03    1.96       6.3  T
   6    -58.8948853 -0.767975E-07  0.168E-03    1.96      10.7  T
   7    -58.8948853 -0.225017E-07  0.102E-03    1.96      17.6  T
   8    -58.8948853 -0.775264E-08  0.689E-04    1.96      26.1  T
   9    -58.8948853 -0.426542E-08  0.384E-04    1.96      46.8  T
     SCC iter.                  ...        0 min,  0.012 sec
     gradient                   ...        0 min,  0.004 sec
 * total energy  :   -58.1545493 Eh     change       -0.4936316E-03 Eh
   gradient norm :     0.0097239 Eh/α   predicted    -0.4145942E-03 ( -16.01%)
   displ. norm   :     0.4993654 α      lambda       -0.7471921E-03
   maximum displ.:     0.2583360 α      in ANC's #4, #3, #1, ...

........................................................................
.............................. CYCLE   17 ..............................
........................................................................

 iter      E             dE          RMSdq      gap      omega  full diag
   1    -58.9000117 -0.589000E+02  0.149E-01    1.96       0.0  T
   2    -58.9000269 -0.151659E-04  0.881E-02    1.96       1.0  T
   3    -58.9000189  0.798065E-05  0.212E-02    1.97       1.0  T
   4    -58.9000299 -0.109353E-04  0.511E-03    1.97       3.5  T
   5    -58.9000303 -0.408123E-06  0.265E-03    1.97       6.8  T
   6    -58.9000303 -0.671371E-07  0.138E-03    1.97      13.0  T
   7    -58.9000303 -0.152767E-07  0.688E-04    1.97      26.1  T
   8    -58.9000303 -0.446675E-08  0.447E-04    1.97      40.2  T
     SCC iter.                  ...        0 min,  0.010 sec
     gradient                   ...        0 min,  0.004 sec
 * total energy  :   -58.1549603 Eh     change       -0.4109459E-03 Eh
   gradient norm :     0.0133187 Eh/α   predicted    -0.4667596E-03 (  13.58%)
   displ. norm   :     0.7211680 α      lambda       -0.8812151E-03
   maximum displ.:     0.3721929 α      in ANC's #4, #2, #3, ...

........................................................................
.............................. CYCLE   18 ..............................
........................................................................

 iter      E             dE          RMSdq      gap      omega  full diag
   1    -58.8912386 -0.588912E+02  0.206E-01    1.98       0.0  T
   2    -58.8912542 -0.156039E-04  0.121E-01    1.98       1.0  T
   3    -58.8912406  0.135565E-04  0.253E-02    1.98       1.0  T
   4    -58.8912579 -0.172883E-04  0.718E-03    1.98       2.5  T
   5    -58.8912587 -0.778543E-06  0.390E-03    1.98       4.6  T
   6    -58.8912588 -0.104867E-06  0.227E-03    1.98       7.9  T
   7    -58.8912588 -0.456466E-07  0.140E-03    1.98      12.8  T
   8    -58.8912588 -0.145434E-07  0.961E-04    1.98      18.7  T
   9    -58.8912589 -0.912308E-08  0.473E-04    1.98      38.0  T
     SCC iter.                  ...        0 min,  0.011 sec
     gradient                   ...        0 min,  0.004 sec
 * total energy  :   -58.1553673 Eh     change       -0.4069924E-03 Eh
   gradient norm :     0.0181471 Eh/α   predicted    -0.6697596E-03 (  64.56%)
   displ. norm   :     0.1980123 α      lambda       -0.9598875E-03
   maximum displ.:     0.1074420 α      in ANC's #1, #3, #4, ...

........................................................................
.............................. CYCLE   19 ..............................
........................................................................

 iter      E             dE          RMSdq      gap      omega  full diag
   1    -58.9025968 -0.589026E+02  0.958E-02    2.01       0.0  T
   2    -58.9026314 -0.345327E-04  0.565E-02    2.01       1.0  T
   3    -58.9026295  0.186529E-05  0.227E-02    2.00       1.0  T
   4    -58.9026325 -0.299640E-05  0.803E-03    2.00       2.2  T
   5    -58.9026340 -0.151585E-05  0.252E-03    2.00       7.1  T
   6    -58.9026341 -0.366518E-07  0.177E-03    2.00      10.1  T
   7    -58.9026341 -0.207222E-07  0.939E-04    2.00      19.1  T
   8    -58.9026341 -0.626089E-08  0.712E-04    2.00      25.2  T
     SCC iter.                  ...        0 min,  0.010 sec
     gradient                   ...        0 min,  0.004 sec
 * total energy  :   -58.1555343 Eh     change       -0.1670153E-03 Eh
   gradient norm :     0.0332299 Eh/α   predicted    -0.4987627E-03 ( 198.63%)
   displ. norm   :     0.3331960 α      lambda       -0.1400329E-02
   maximum displ.:     0.2033257 α      in ANC's #4, #2, #1, ...

........................................................................
.............................. CYCLE   20 ..............................
........................................................................

 iter      E             dE          RMSdq      gap      omega  full diag
   1    -58.8959963 -0.588960E+02  0.148E-01    1.94       0.0  T
   2    -58.8960625 -0.661313E-04  0.865E-02    1.95       1.0  T
   3    -58.8960580  0.444597E-05  0.311E-02    1.96       1.0  T
   4    -58.8960641 -0.609212E-05  0.103E-02    1.95       1.7  T
   5    -58.8960671 -0.299514E-05  0.315E-03    1.95       5.7  T
   6    -58.8960672 -0.893896E-07  0.196E-03    1.95       9.2  T
   7    -58.8960672 -0.166620E-07  0.940E-04    1.95      19.1  T
   8    -58.8960672 -0.889376E-08  0.664E-04    1.95      27.1  T
     SCC iter.                  ...        0 min,  0.010 sec
     gradient                   ...        0 min,  0.004 sec
 * total energy  :   -58.1560713 Eh     change       -0.5370598E-03 Eh
   gradient norm :     0.0172447 Eh/α   predicted    -0.7778988E-03 (  44.84%)
   displ. norm   :     0.4183350 α      lambda       -0.9394710E-03
   maximum displ.:     0.2345147 α      in ANC's #3, #4, #1, ...
 * RMSD in coord.:     1.0487897 α      energy gain  -0.1266970E-01 Eh

generating ANC from exact Hessian ...
Using Lindh-Hessian (1995)
 Shifting diagonal of input Hessian by    9.5947349964473159E-003
 Lowest  eigenvalues of input Hessian
    0.000000    0.000000    0.000000    0.000000    0.000000    0.000000
    0.010000    0.010266    0.011160    0.011450    0.012265    0.013619
    0.015638    0.017616    0.020669    0.020869    0.024158    0.026397
 Highest eigenvalues
    1.959153    2.005889    2.110136    2.138842    2.237104    2.420037


........................................................................
.............................. CYCLE   21 ..............................
........................................................................

 iter      E             dE          RMSdq      gap      omega  full diag
   1    -58.8935778 -0.588936E+02  0.127E-01    1.96       0.0  T
   2    -58.8935836 -0.587698E-05  0.747E-02    1.96       1.0  T
   3    -58.8935792  0.449545E-05  0.157E-02    1.96       1.1  T
   4    -58.8935853 -0.615284E-05  0.369E-03    1.96       4.9  T
   5    -58.8935854 -0.125188E-06  0.231E-03    1.96       7.8  T
   6    -58.8935855 -0.557198E-07  0.126E-03    1.96      14.2  T
   7    -58.8935855 -0.102634E-07  0.839E-04    1.96      21.4  T
   8    -58.8935855 -0.548955E-08  0.570E-04    1.96      31.5  T
     SCC iter.                  ...        0 min,  0.010 sec
     gradient                   ...        0 min,  0.004 sec
 * total energy  :   -58.1565487 Eh     change       -0.4773621E-03 Eh
   gradient norm :     0.0128444 Eh/α   predicted     0.0000000E+00 (-100.00%)
   displ. norm   :     0.1071102 α      lambda       -0.3913800E-03
   maximum displ.:     0.0794651 α      in ANC's #4, #3, #6, ...

........................................................................
.............................. CYCLE   22 ..............................
........................................................................

 iter      E             dE          RMSdq      gap      omega  full diag
   1    -58.8989316 -0.588989E+02  0.459E-02    1.97       0.0  T
   2    -58.8989335 -0.188538E-05  0.267E-02    1.97       1.0  T
   3    -58.8989328  0.744968E-06  0.722E-03    1.96       2.5  T
   4    -58.8989337 -0.950876E-06  0.178E-03    1.97      10.1  T
   5    -58.8989338 -0.778951E-07  0.792E-04    1.97      22.7  T
   6    -58.8989338 -0.509886E-08  0.518E-04    1.97      34.6  T
     SCC iter.                  ...        0 min,  0.008 sec
     gradient                   ...        0 min,  0.005 sec
 * total energy  :   -58.1568162 Eh     change       -0.2674622E-03 Eh
   gradient norm :     0.0043477 Eh/α   predicted    -0.1979369E-03 ( -25.99%)
   displ. norm   :     0.1792550 α      lambda       -0.2552095E-03
   maximum displ.:     0.1402086 α      in ANC's #4, #3, #1, ...

........................................................................
.............................. CYCLE   23 ..............................
........................................................................

 iter      E             dE          RMSdq      gap      omega  full diag
   1    -58.9025900 -0.589026E+02  0.580E-02    1.97       0.0  T
   2    -58.9025919 -0.195081E-05  0.340E-02    1.97       1.0  T
   3    -58.9025909  0.102912E-05  0.716E-03    1.97       2.5  T
   4    -58.9025922 -0.127757E-05  0.204E-03    1.97       8.8  T
   5    -58.9025923 -0.101124E-06  0.989E-04    1.97      18.2  T
   6    -58.9025923 -0.615514E-08  0.676E-04    1.97      26.6  T
     SCC iter.                  ...        0 min,  0.008 sec
     gradient                   ...        0 min,  0.004 sec
 * total energy  :   -58.1570076 Eh     change       -0.1914532E-03 Eh
   gradient norm :     0.0043111 Eh/α   predicted    -0.1317072E-03 ( -31.21%)
   displ. norm   :     0.2177016 α      lambda       -0.2171751E-03
   maximum displ.:     0.1609889 α      in ANC's #4, #3, #1, ...

........................................................................
.............................. CYCLE   24 ..............................
........................................................................

 iter      E             dE          RMSdq      gap      omega  full diag
   1    -58.9029520 -0.589030E+02  0.682E-02    1.97       0.0  T
   2    -58.9029530 -0.964928E-06  0.402E-02    1.97       1.0  T
   3    -58.9029520  0.100847E-05  0.636E-03    1.96       2.8  T
   4    -58.9029533 -0.127856E-05  0.176E-03    1.97      10.2  T
   5    -58.9029533 -0.454656E-07  0.110E-03    1.97      16.3  T
   6    -58.9029533 -0.638398E-08  0.734E-04    1.97      24.5  T
   7    -58.9029533 -0.463908E-08  0.432E-04    1.97      41.6  T
     SCC iter.                  ...        0 min,  0.009 sec
     gradient                   ...        0 min,  0.004 sec
 * total energy  :   -58.1572089 Eh     change       -0.2013156E-03 Eh
   gradient norm :     0.0065151 Eh/α   predicted    -0.1137389E-03 ( -43.50%)
   displ. norm   :     0.3122847 α      lambda       -0.3164343E-03
   maximum displ.:     0.2199404 α      in ANC's #4, #3, #1, ...

........................................................................
.............................. CYCLE   25 ..............................
........................................................................

 iter      E             dE          RMSdq      gap      omega  full diag
   1    -58.9010138 -0.589010E+02  0.994E-02    1.96       0.0  T
   2    -58.9010150 -0.123138E-05  0.586E-02    1.96       1.0  T
   3    -58.9010133  0.172444E-05  0.839E-03    1.96       2.1  T
   4    -58.9010156 -0.228576E-05  0.233E-03    1.96       7.7  T
   5    -58.9010156 -0.351564E-07  0.155E-03    1.96      11.6  T
   6    -58.9010156 -0.145228E-07  0.997E-04    1.96      18.0  T
   7    -58.9010156 -0.868571E-08  0.647E-04    1.96      27.8  T
     SCC iter.                  ...        0 min,  0.009 sec
     gradient                   ...        0 min,  0.004 sec
 * total energy  :   -58.1574980 Eh     change       -0.2890552E-03 Eh
   gradient norm :     0.0059144 Eh/α   predicted    -0.1736483E-03 ( -39.93%)
   displ. norm   :     0.4438965 α      lambda       -0.3994906E-03
   maximum displ.:     0.3078412 α      in ANC's #4, #3, #7, ...

........................................................................
.............................. CYCLE   26 ..............................
........................................................................

 iter      E             dE          RMSdq      gap      omega  full diag
   1    -58.8973730 -0.588974E+02  0.142E-01    1.96       0.0  T
   2    -58.8973754 -0.239888E-05  0.836E-02    1.96       1.0  T
   3    -58.8973713  0.405354E-05  0.129E-02    1.96       1.4  T
   4    -58.8973767 -0.532828E-05  0.347E-03    1.96       5.2  T
   5    -58.8973767 -0.618003E-07  0.234E-03    1.96       7.7  T
   6    -58.8973768 -0.350263E-07  0.156E-03    1.96      11.5  T
   7    -58.8973768 -0.222175E-07  0.103E-03    1.96      17.5  T
   8    -58.8973768 -0.101676E-07  0.615E-04    1.96      29.2  T
   9    -58.8973768 -0.515453E-08  0.282E-04    1.96      63.8  T
     SCC iter.                  ...        0 min,  0.011 sec
     gradient                   ...        0 min,  0.004 sec
 * total energy  :   -58.1578262 Eh     change       -0.3282493E-03 Eh
   gradient norm :     0.0059451 Eh/α   predicted    -0.2391073E-03 ( -27.16%)
   displ. norm   :     0.4080586 α      lambda       -0.3073991E-03
   maximum displ.:     0.2898228 α      in ANC's #4, #3, #7, ...

........................................................................
.............................. CYCLE   27 ..............................
........................................................................

 iter      E             dE          RMSdq      gap      omega  full diag
   1    -58.8949572 -0.588950E+02  0.131E-01    1.96       0.0  T
   2    -58.8949594 -0.222721E-05  0.769E-02    1.96       1.0  T
   3    -58.8949552  0.421651E-05  0.130E-02    1.96       1.4  T
   4    -58.8949606 -0.544606E-05  0.326E-03    1.96       5.5  T
   5    -58.8949607 -0.549839E-07  0.221E-03    1.96       8.1  T
   6    -58.8949607 -0.332569E-07  0.148E-03    1.96      12.1  T
   7    -58.8949607 -0.203059E-07  0.995E-04    1.96      18.1  T
   8    -58.8949608 -0.100282E-07  0.580E-04    1.96      30.9  T
     SCC iter.                  ...        0 min,  0.010 sec
     gradient                   ...        0 min,  0.004 sec
 * total energy  :   -58.1580687 Eh     change       -0.2424437E-03 Eh
   gradient norm :     0.0075995 Eh/α   predicted    -0.1792953E-03 ( -26.05%)
   displ. norm   :     0.3804806 α      lambda       -0.3254175E-03
   maximum displ.:     0.2841012 α      in ANC's #4, #3, #7, ...

........................................................................
.............................. CYCLE   28 ..............................
........................................................................

 iter      E             dE          RMSdq      gap      omega  full diag
   1    -58.8953589 -0.588954E+02  0.125E-01    1.96       0.0  T
   2    -58.8953615 -0.260325E-05  0.732E-02    1.96       1.0  T
   3    -58.8953579  0.364426E-05  0.123E-02    1.96       1.5  T
   4    -58.8953628 -0.485823E-05  0.314E-03    1.96       5.7  T
   5    -58.8953628 -0.583536E-07  0.205E-03    1.96       8.8  T
   6    -58.8953628 -0.297174E-07  0.133E-03    1.96      13.5  T
   7    -58.8953629 -0.143247E-07  0.934E-04    1.96      19.2  T
   8    -58.8953629 -0.881146E-08  0.534E-04    1.96      33.6  T
     SCC iter.                  ...        0 min,  0.010 sec
     gradient                   ...        0 min,  0.004 sec
 * total energy  :   -58.1583391 Eh     change       -0.2704149E-03 Eh
   gradient norm :     0.0077523 Eh/α   predicted    -0.1862640E-03 ( -31.12%)
   displ. norm   :     0.4819545 α      lambda       -0.4938046E-03
   maximum displ.:     0.3726313 α      in ANC's #4, #7, #3, ...

........................................................................
.............................. CYCLE   29 ..............................
........................................................................

 iter      E             dE          RMSdq      gap      omega  full diag
   1    -58.8987906 -0.588988E+02  0.170E-01    1.96       0.0  T
   2    -58.8987971 -0.653270E-05  0.989E-02    1.96       1.0  T
   3    -58.8987913  0.575897E-05  0.164E-02    1.96       1.1  T
   4    -58.8987995 -0.820716E-05  0.425E-03    1.96       4.2  T
   5    -58.8987997 -0.113188E-06  0.243E-03    1.96       7.4  T
   6    -58.8987997 -0.520329E-07  0.140E-03    1.96      12.8  T
   7    -58.8987997 -0.131231E-07  0.102E-03    1.96      17.5  T
   8    -58.8987997 -0.823999E-08  0.643E-04    1.96      27.9  T
   9    -58.8987997 -0.590653E-08  0.293E-04    1.96      61.4  T
     SCC iter.                  ...        0 min,  0.011 sec
     gradient                   ...        0 min,  0.004 sec
 * total energy  :   -58.1587262 Eh     change       -0.3871503E-03 Eh
   gradient norm :     0.0069760 Eh/α   predicted    -0.3042614E-03 ( -21.41%)
   displ. norm   :     0.5158386 α      lambda       -0.4307468E-03
   maximum displ.:     0.3970132 α      in ANC's #4, #7, #3, ...

........................................................................
.............................. CYCLE   30 ..............................
........................................................................

 iter      E             dE          RMSdq      gap      omega  full diag
   1    -58.9001807 -0.589002E+02  0.194E-01    1.96       0.0  T
   2    -58.9001894 -0.868003E-05  0.113E-01    1.96       1.0  T
   3    -58.9001814  0.799941E-05  0.188E-02    1.96       1.0  T
   4    -58.9001928 -0.113446E-04  0.489E-03    1.96       3.7  T
   5    -58.9001929 -0.127087E-06  0.251E-03    1.96       7.2  T
   6    -58.9001930 -0.648043E-07  0.142E-03    1.96      12.7  T
   7    -58.9001930 -0.149369E-07  0.104E-03    1.96      17.3  T
   8    -58.9001930 -0.766589E-08  0.666E-04    1.96      27.0  T
   9    -58.9001930 -0.571315E-08  0.313E-04    1.96      57.3  T
     SCC iter.                  ...        0 min,  0.011 sec
     gradient                   ...        0 min,  0.004 sec
 * total energy  :   -58.1590777 Eh     change       -0.3515036E-03 Eh
   gradient norm :     0.0072389 Eh/α   predicted    -0.2726874E-03 ( -22.42%)
   displ. norm   :     0.5122858 α      lambda       -0.4858696E-03
   maximum displ.:     0.3753824 α      in ANC's #4, #7, #6, ...

........................................................................
.............................. CYCLE   31 ..............................
........................................................................

 iter      E             dE          RMSdq      gap      omega  full diag
   1    -58.9047620 -0.589048E+02  0.218E-01    1.96       0.0  T
   2    -58.9047747 -0.126851E-04  0.126E-01    1.96       1.0  T
   3    -58.9047689  0.577002E-05  0.183E-02    1.96       1.0  T
   4    -58.9047788 -0.981208E-05  0.589E-03    1.96       3.0  T
   5    -58.9047790 -0.235465E-06  0.275E-03    1.96       6.5  T
   6    -58.9047791 -0.979741E-07  0.148E-03    1.96      12.1  T
   7    -58.9047791 -0.244034E-07  0.106E-03    1.96      16.9  T
   8    -58.9047791 -0.838010E-08  0.684E-04    1.96      26.3  T
   9    -58.9047791 -0.555477E-08  0.352E-04    1.96      51.1  T
     SCC iter.                  ...        0 min,  0.011 sec
     gradient                   ...        0 min,  0.005 sec
 * total energy  :   -58.1594462 Eh     change       -0.3684812E-03 Eh
   gradient norm :     0.0086143 Eh/α   predicted    -0.3066914E-03 ( -16.77%)
   displ. norm   :     0.6728986 α      lambda       -0.5031636E-03
   maximum displ.:     0.5038050 α      in ANC's #4, #7, #2, ...

........................................................................
.............................. CYCLE   32 ..............................
........................................................................

 iter      E             dE          RMSdq      gap      omega  full diag
   1    -58.8972656 -0.588973E+02  0.278E-01    1.95       0.0  T
   2    -58.8972858 -0.201707E-04  0.162E-01    1.95       1.0  T
   3    -58.8972535  0.322797E-04  0.354E-02    1.95       1.0  T
   4    -58.8972950 -0.414745E-04  0.779E-03    1.95       2.3  T
   5    -58.8972952 -0.285000E-06  0.423E-03    1.95       4.2  T
   6    -58.8972954 -0.148032E-06  0.282E-03    1.95       6.4  T
   7    -58.8972955 -0.685915E-07  0.212E-03    1.95       8.5  T
   8    -58.8972955 -0.431989E-07  0.130E-03    1.95      13.8  T
   9    -58.8972955 -0.261447E-07  0.597E-04    1.95      30.1  T
  10    -58.8972955 -0.448951E-08  0.303E-04    1.95      59.4  T
     SCC iter.                  ...        0 min,  0.063 sec
     gradient                   ...        0 min,  0.006 sec
 * total energy  :   -58.1597434 Eh     change       -0.2971741E-03 Eh
   gradient norm :     0.0106811 Eh/α   predicted    -0.3654986E-03 (  22.99%)
   displ. norm   :     0.3401889 α      lambda       -0.6641696E-03
   maximum displ.:     0.1541437 α      in ANC's #4, #6, #7, ...

........................................................................
.............................. CYCLE   33 ..............................
........................................................................

 iter      E             dE          RMSdq      gap      omega  full diag
   1    -58.9038274 -0.589038E+02  0.169E-01    1.95       0.0  T
   2    -58.9038358 -0.845141E-05  0.978E-02    1.95       1.0  T
   3    -58.9038326  0.325097E-05  0.173E-02    1.95       1.0  T
   4    -58.9038387 -0.614700E-05  0.629E-03    1.95       2.9  T
   5    -58.9038390 -0.206495E-06  0.394E-03    1.95       4.6  T
   6    -58.9038391 -0.139687E-06  0.265E-03    1.95       6.8  T
   7    -58.9038391 -0.508525E-07  0.202E-03    1.95       8.9  T
   8    -58.9038392 -0.580022E-07  0.958E-04    1.95      18.7  T
   9    -58.9038392 -0.194821E-07  0.392E-04    1.95      45.8  T
     SCC iter.                  ...        0 min,  0.012 sec
     gradient                   ...        0 min,  0.004 sec
 * total energy  :   -58.1601620 Eh     change       -0.4185785E-03 Eh
   gradient norm :     0.0070660 Eh/α   predicted    -0.3705180E-03 ( -11.48%)
   displ. norm   :     0.5146543 α      lambda       -0.4396190E-03
   maximum displ.:     0.3052649 α      in ANC's #4, #7, #2, ...

........................................................................
.............................. CYCLE   34 ..............................
........................................................................

 iter      E             dE          RMSdq      gap      omega  full diag
   1    -58.9029776 -0.589030E+02  0.227E-01    1.96       0.0  T
   2    -58.9029919 -0.143188E-04  0.132E-01    1.96       1.0  T
   3    -58.9029797  0.121501E-04  0.235E-02    1.95       1.0  T
   4    -58.9029969 -0.171401E-04  0.639E-03    1.96       2.8  T
   5    -58.9029972 -0.297315E-06  0.289E-03    1.96       6.2  T
   6    -58.9029972 -0.533337E-07  0.161E-03    1.96      11.1  T
   7    -58.9029972 -0.268403E-07  0.119E-03    1.96      15.2  T
   8    -58.9029973 -0.111902E-07  0.825E-04    1.96      21.8  T
   9    -58.9029973 -0.941834E-08  0.462E-04    1.96      38.9  T
     SCC iter.                  ...        0 min,  0.011 sec
     gradient                   ...        0 min,  0.004 sec
 * total energy  :   -58.1604919 Eh     change       -0.3299593E-03 Eh
   gradient norm :     0.0078797 Eh/α   predicted    -0.2780364E-03 ( -15.74%)
   displ. norm   :     0.4524211 α      lambda       -0.5274186E-03
   maximum displ.:     0.2068343 α      in ANC's #2, #3, #1, ...

........................................................................
.............................. CYCLE   35 ..............................
........................................................................

 iter      E             dE          RMSdq      gap      omega  full diag
   1    -58.9062894 -0.589063E+02  0.172E-01    1.98       0.0  T
   2    -58.9062954 -0.601823E-05  0.100E-01    1.97       1.0  T
   3    -58.9062883  0.709048E-05  0.166E-02    1.97       1.1  T
   4    -58.9062979 -0.962631E-05  0.439E-03    1.97       4.1  T
   5    -58.9062980 -0.807525E-07  0.225E-03    1.97       8.0  T
   6    -58.9062981 -0.105617E-06  0.627E-04    1.97      28.6  T
   7    -58.9062981 -0.404827E-08  0.369E-04    1.97      48.7  T
     SCC iter.                  ...        0 min,  0.011 sec
     gradient                   ...        0 min,  0.004 sec
 * total energy  :   -58.1608942 Eh     change       -0.4023071E-03 Eh
   gradient norm :     0.0084452 Eh/α   predicted    -0.3176880E-03 ( -21.03%)
   displ. norm   :     0.5962747 α      lambda       -0.5474118E-03
   maximum displ.:     0.2649788 α      in ANC's #2, #1, #3, ...

........................................................................
.............................. CYCLE   36 ..............................
........................................................................

 iter      E             dE          RMSdq      gap      omega  full diag
   1    -58.9021122 -0.589021E+02  0.233E-01    1.98       0.0  T
   2    -58.9021264 -0.141873E-04  0.135E-01    1.98       1.0  T
   3    -58.9021137  0.126486E-04  0.242E-02    1.98       1.0  T
   4    -58.9021312 -0.174517E-04  0.655E-03    1.97       2.7  T
   5    -58.9021316 -0.384960E-06  0.307E-03    1.97       5.9  T
   6    -58.9021316 -0.586443E-07  0.141E-03    1.98      12.8  T
   7    -58.9021317 -0.303821E-07  0.932E-04    1.98      19.3  T
   8    -58.9021317 -0.626765E-08  0.682E-04    1.98      26.3  T
     SCC iter.                  ...        0 min,  0.010 sec
     gradient                   ...        0 min,  0.004 sec
 * total energy  :   -58.1613156 Eh     change       -0.4213782E-03 Eh
   gradient norm :     0.0083966 Eh/α   predicted    -0.3710264E-03 ( -11.95%)
   displ. norm   :     0.5402119 α      lambda       -0.6047280E-03
   maximum displ.:     0.3184242 α      in ANC's #3, #1, #2, ...

........................................................................
.............................. CYCLE   37 ..............................
........................................................................

 iter      E             dE          RMSdq      gap      omega  full diag
   1    -58.9037179 -0.589037E+02  0.159E-01    2.00       0.0  T
   2    -58.9037263 -0.840301E-05  0.933E-02    1.99       1.0  T
   3    -58.9037100  0.163228E-04  0.246E-02    2.00       1.0  T
   4    -58.9037302 -0.202184E-04  0.636E-03    1.99       2.8  T
   5    -58.9037307 -0.450862E-06  0.431E-03    1.99       4.2  T
   6    -58.9037308 -0.139611E-06  0.280E-03    1.99       6.4  T
   7    -58.9037309 -0.770959E-07  0.203E-03    1.99       8.8  T
   8    -58.9037309 -0.461707E-07  0.124E-03    1.99      14.4  T
   9    -58.9037310 -0.265081E-07  0.428E-04    1.99      42.0  T
  10    -58.9037310 -0.183908E-08  0.244E-04    1.99      73.6  T
     SCC iter.                  ...        0 min,  0.013 sec
     gradient                   ...        0 min,  0.008 sec
 * total energy  :   -58.1616213 Eh     change       -0.3057079E-03 Eh
   gradient norm :     0.0121593 Eh/α   predicted    -0.3906184E-03 (  27.78%)
   displ. norm   :     0.3965015 α      lambda       -0.4817860E-03
   maximum displ.:     0.2097885 α      in ANC's #2, #4, #7, ...

........................................................................
.............................. CYCLE   38 ..............................
........................................................................

 iter      E             dE          RMSdq      gap      omega  full diag
   1    -58.8971898 -0.588972E+02  0.159E-01    1.99       0.0  T
   2    -58.8971996 -0.979483E-05  0.932E-02    1.98       1.0  T
   3    -58.8971809  0.186963E-04  0.282E-02    1.98       1.0  T
   4    -58.8972043 -0.233958E-04  0.559E-03    1.98       3.2  T
   5    -58.8972045 -0.211022E-06  0.378E-03    1.98       4.8  T
   6    -58.8972046 -0.937927E-07  0.268E-03    1.98       6.7  T
   7    -58.8972047 -0.694823E-07  0.194E-03    1.98       9.2  T
   8    -58.8972047 -0.425581E-07  0.127E-03    1.98      14.2  T
   9    -58.8972048 -0.265123E-07  0.360E-04    1.98      49.8  T
  10    -58.8972048 -0.137566E-08  0.195E-04    1.98      92.2  T
     SCC iter.                  ...        0 min,  0.017 sec
     gradient                   ...        0 min,  0.004 sec
 * total energy  :   -58.1619187 Eh     change       -0.2974140E-03 Eh
   gradient norm :     0.0124987 Eh/α   predicted    -0.2788180E-03 (  -6.25%)
   displ. norm   :     0.2904739 α      lambda       -0.8041786E-03
   maximum displ.:     0.1612091 α      in ANC's #6, #2, #3, ...

........................................................................
.............................. CYCLE   39 ..............................
........................................................................

 iter      E             dE          RMSdq      gap      omega  full diag
   1    -58.9036442 -0.589036E+02  0.100E-01    1.99       0.0  T
   2    -58.9036537 -0.950906E-05  0.603E-02    1.98       1.0  T
   3    -58.9036448  0.888989E-05  0.250E-02    1.99       1.0  T
   4    -58.9036575 -0.126291E-04  0.503E-03    1.98       3.6  T
   5    -58.9036577 -0.210766E-06  0.327E-03    1.98       5.5  T
   6    -58.9036578 -0.813706E-07  0.215E-03    1.98       8.4  T
   7    -58.9036578 -0.359982E-07  0.159E-03    1.98      11.3  T
   8    -58.9036578 -0.310770E-07  0.935E-04    1.98      19.2  T
   9    -58.9036578 -0.136974E-07  0.382E-04    1.98      47.0  T
     SCC iter.                  ...        0 min,  0.011 sec
     gradient                   ...        0 min,  0.004 sec
 * total energy  :   -58.1621944 Eh     change       -0.2756337E-03 Eh
   gradient norm :     0.0139813 Eh/α   predicted    -0.4360158E-03 (  58.19%)
   displ. norm   :     0.3502585 α      lambda       -0.5144037E-03
   maximum displ.:     0.2185156 α      in ANC's #3, #2, #1, ...

........................................................................
.............................. CYCLE   40 ..............................
........................................................................

 iter      E             dE          RMSdq      gap      omega  full diag
   1    -58.9008129 -0.589008E+02  0.113E-01    1.98       0.0  T
   2    -58.9008184 -0.546759E-05  0.665E-02    1.98       1.0  T
   3    -58.9008079  0.105065E-04  0.222E-02    1.98       1.0  T
   4    -58.9008212 -0.133250E-04  0.473E-03    1.98       3.8  T
   5    -58.9008213 -0.139388E-06  0.337E-03    1.98       5.3  T
   6    -58.9008214 -0.882268E-07  0.226E-03    1.98       7.9  T
   7    -58.9008215 -0.503890E-07  0.159E-03    1.98      11.3  T
   8    -58.9008215 -0.309854E-07  0.965E-04    1.98      18.6  T
   9    -58.9008215 -0.144083E-07  0.415E-04    1.98      43.3  T
     SCC iter.                  ...        0 min,  0.011 sec
     gradient                   ...        0 min,  0.004 sec
 * total energy  :   -58.1625246 Eh     change       -0.3302297E-03 Eh
   gradient norm :     0.0101415 Eh/α   predicted    -0.2887564E-03 ( -12.56%)
   displ. norm   :     0.2408118 α      lambda       -0.3414422E-03
   maximum displ.:     0.1569713 α      in ANC's #2, #3, #1, ...

........................................................................
.............................. CYCLE   41 ..............................
........................................................................

 iter      E             dE          RMSdq      gap      omega  full diag
   1    -58.9007246 -0.589007E+02  0.792E-02    1.98       0.0  T
   2    -58.9007282 -0.362064E-05  0.473E-02    1.98       1.0  T
   3    -58.9007244  0.381575E-05  0.145E-02    1.98       1.2  T
   4    -58.9007293 -0.491777E-05  0.272E-03    1.98       6.6  T
   5    -58.9007294 -0.104309E-06  0.159E-03    1.98      11.3  T
   6    -58.9007294 -0.196139E-07  0.881E-04    1.98      20.4  T
   7    -58.9007294 -0.529324E-08  0.630E-04    1.98      28.5  T
     SCC iter.                  ...        0 min,  0.009 sec
     gradient                   ...        0 min,  0.004 sec
 * total energy  :   -58.1627236 Eh     change       -0.1989773E-03 Eh
   gradient norm :     0.0096818 Eh/α   predicted    -0.1806243E-03 (  -9.22%)
   displ. norm   :     0.2951279 α      lambda       -0.3187793E-03
   maximum displ.:     0.1961772 α      in ANC's #2, #3, #1, ...

........................................................................
.............................. CYCLE   42 ..............................
........................................................................

 iter      E             dE          RMSdq      gap      omega  full diag
   1    -58.9013713 -0.589014E+02  0.936E-02    1.99       0.0  T
   2    -58.9013767 -0.542190E-05  0.552E-02    1.98       1.0  T
   3    -58.9013747  0.201741E-05  0.119E-02    1.98       1.5  T
   4    -58.9013777 -0.300820E-05  0.359E-03    1.98       5.0  T
   5    -58.9013778 -0.152488E-06  0.203E-03    1.98       8.8  T
   6    -58.9013779 -0.230955E-07  0.139E-03    1.98      12.9  T
   7    -58.9013779 -0.175382E-07  0.947E-04    1.98      19.0  T
   8    -58.9013779 -0.664927E-08  0.684E-04    1.98      26.3  T
     SCC iter.                  ...        0 min,  0.010 sec
     gradient                   ...        0 min,  0.004 sec
 * total energy  :   -58.1628893 Eh     change       -0.1656759E-03 Eh
   gradient norm :     0.0100706 Eh/α   predicted    -0.1732743E-03 (   4.59%)
   displ. norm   :     0.3092129 α      lambda       -0.3036954E-03
   maximum displ.:     0.2106814 α      in ANC's #2, #1, #3, ...
 * RMSD in coord.:     1.0999430 α      energy gain  -0.6817927E-02 Eh

generating ANC from exact Hessian ...
Using Lindh-Hessian (1995)
 Shifting diagonal of input Hessian by    9.6401962228553333E-003
 Lowest  eigenvalues of input Hessian
    0.000000    0.000000    0.000000    0.000000    0.000000    0.000000
    0.010000    0.010571    0.011290    0.011524    0.012240    0.013529
    0.015719    0.017277    0.021043    0.022205    0.024681    0.027133
 Highest eigenvalues
    1.956121    2.024892    2.112566    2.145995    2.239165    2.423477


........................................................................
.............................. CYCLE   43 ..............................
........................................................................

 iter      E             dE          RMSdq      gap      omega  full diag
   1    -58.9008927 -0.589009E+02  0.933E-02    1.98       0.0  T
   2    -58.9008947 -0.201771E-05  0.549E-02    1.98       1.0  T
   3    -58.9008925  0.216423E-05  0.930E-03    1.98       1.9  T
   4    -58.9008954 -0.292735E-05  0.279E-03    1.98       6.4  T
   5    -58.9008955 -0.624814E-07  0.161E-03    1.98      11.2  T
   6    -58.9008955 -0.340075E-07  0.918E-04    1.98      19.6  T
   7    -58.9008955 -0.766674E-08  0.680E-04    1.98      26.4  T
     SCC iter.                  ...        0 min,  0.009 sec
     gradient                   ...        0 min,  0.004 sec
 * total energy  :   -58.1630761 Eh     change       -0.1867880E-03 Eh
   gradient norm :     0.0084221 Eh/α   predicted     0.0000000E+00 (-100.00%)
   displ. norm   :     0.0665695 α      lambda       -0.1925631E-03
   maximum displ.:     0.0464345 α      in ANC's #2, #1, #10, ...

........................................................................
.............................. CYCLE   44 ..............................
........................................................................

 iter      E             dE          RMSdq      gap      omega  full diag
   1    -58.9051751 -0.589052E+02  0.307E-02    1.98       0.0  T
   2    -58.9051760 -0.902189E-06  0.180E-02    1.98       1.0  T
   3    -58.9051754  0.575533E-06  0.668E-03    1.98       2.7  T
   4    -58.9051763 -0.858027E-06  0.112E-03    1.98      16.0  T
   5    -58.9051763 -0.124415E-07  0.605E-04    1.98      29.7  T
   6    -58.9051763 -0.190217E-08  0.275E-04    1.98      65.4  T
     SCC iter.                  ...        0 min,  0.008 sec
     gradient                   ...        0 min,  0.004 sec
 * total energy  :   -58.1632129 Eh     change       -0.1368272E-03 Eh
   gradient norm :     0.0029133 Eh/α   predicted    -0.9727352E-04 ( -28.91%)
   displ. norm   :     0.1121212 α      lambda       -0.1090329E-03
   maximum displ.:     0.0825156 α      in ANC's #2, #1, #10, ...

........................................................................
.............................. CYCLE   45 ..............................
........................................................................

 iter      E             dE          RMSdq      gap      omega  full diag
   1    -58.9076437 -0.589076E+02  0.393E-02    1.98       0.0  T
   2    -58.9076445 -0.820118E-06  0.232E-02    1.98       1.0  T
   3    -58.9076437  0.800021E-06  0.679E-03    1.98       2.6  T
   4    -58.9076448 -0.107732E-05  0.131E-03    1.98      13.7  T
   5    -58.9076448 -0.125351E-07  0.714E-04    1.98      25.1  T
   6    -58.9076448 -0.355329E-08  0.326E-04    1.98      55.0  T
     SCC iter.                  ...        0 min,  0.008 sec
     gradient                   ...        0 min,  0.006 sec
 * total energy  :   -58.1632919 Eh     change       -0.7902156E-04 Eh
   gradient norm :     0.0022088 Eh/α   predicted    -0.5522577E-04 ( -30.11%)
   displ. norm   :     0.1284828 α      lambda       -0.7579529E-04
   maximum displ.:     0.0927315 α      in ANC's #2, #1, #3, ...

........................................................................
.............................. CYCLE   46 ..............................
........................................................................

 iter      E             dE          RMSdq      gap      omega  full diag
   1    -58.9080726 -0.589081E+02  0.415E-02    1.98       0.0  T
   2    -58.9080731 -0.456335E-06  0.244E-02    1.98       1.0  T
   3    -58.9080727  0.414502E-06  0.489E-03    1.98       3.7  T
   4    -58.9080733 -0.591313E-06  0.127E-03    1.98      14.1  T
   5    -58.9080733 -0.759844E-08  0.685E-04    1.98      26.2  T
   6    -58.9080733 -0.356546E-08  0.387E-04    1.98      46.4  T
     SCC iter.                  ...        0 min,  0.008 sec
     gradient                   ...        0 min,  0.004 sec
 * total energy  :   -58.1633585 Eh     change       -0.6663687E-04 Eh
   gradient norm :     0.0032594 Eh/α   predicted    -0.3852404E-04 ( -42.19%)
   displ. norm   :     0.1638296 α      lambda       -0.9282002E-04
   maximum displ.:     0.1154317 α      in ANC's #2, #1, #3, ...

........................................................................
.............................. CYCLE   47 ..............................
........................................................................

 iter      E             dE          RMSdq      gap      omega  full diag
   1    -58.9072762 -0.589073E+02  0.523E-02    1.98       0.0  T
   2    -58.9072767 -0.511462E-06  0.307E-02    1.98       1.0  T
   3    -58.9072765  0.217028E-06  0.421E-03    1.98       4.3  T
   4    -58.9072769 -0.413414E-06  0.147E-03    1.98      12.2  T
   5    -58.9072769 -0.120357E-07  0.690E-04    1.98      26.0  T
   6    -58.9072769 -0.351816E-08  0.410E-04    1.98      43.8  T
     SCC iter.                  ...        0 min,  0.008 sec
     gradient                   ...        0 min,  0.004 sec
 * total energy  :   -58.1634426 Eh     change       -0.8409933E-04 Eh
   gradient norm :     0.0030268 Eh/α   predicted    -0.4765586E-04 ( -43.33%)
   displ. norm   :     0.2104587 α      lambda       -0.1098340E-03
   maximum displ.:     0.1469939 α      in ANC's #2, #1, #3, ...

........................................................................
.............................. CYCLE   48 ..............................
........................................................................

 iter      E             dE          RMSdq      gap      omega  full diag
   1    -58.9059823 -0.589060E+02  0.656E-02    1.98       0.0  T
   2    -58.9059830 -0.749641E-06  0.384E-02    1.98       1.0  T
   3    -58.9059828  0.222766E-06  0.436E-03    1.98       4.1  T
   4    -58.9059833 -0.490916E-06  0.168E-03    1.98      10.7  T
   5    -58.9059833 -0.177010E-07  0.816E-04    1.98      22.0  T
   6    -58.9059833 -0.104252E-07  0.366E-04    1.98      49.1  T
     SCC iter.                  ...        0 min,  0.008 sec
     gradient                   ...        0 min,  0.004 sec
 * total energy  :   -58.1635399 Eh     change       -0.9723036E-04 Eh
   gradient norm :     0.0026629 Eh/α   predicted    -0.5734980E-04 ( -41.02%)
   displ. norm   :     0.2490883 α      lambda       -0.1140294E-03
   maximum displ.:     0.1733743 α      in ANC's #2, #1, #4, ...

........................................................................
.............................. CYCLE   49 ..............................
........................................................................

 iter      E             dE          RMSdq      gap      omega  full diag
   1    -58.9047734 -0.589048E+02  0.758E-02    1.98       0.0  T
   2    -58.9047743 -0.933863E-06  0.444E-02    1.98       1.0  T
   3    -58.9047741  0.280468E-06  0.463E-03    1.98       3.9  T
   4    -58.9047747 -0.601175E-06  0.180E-03    1.98      10.0  T
   5    -58.9047747 -0.230282E-07  0.877E-04    1.98      20.5  T
   6    -58.9047747 -0.158778E-07  0.310E-04    1.98      57.9  T
     SCC iter.                  ...        0 min,  0.008 sec
     gradient                   ...        0 min,  0.004 sec
 * total energy  :   -58.1636393 Eh     change       -0.9948158E-04 Eh
   gradient norm :     0.0031818 Eh/α   predicted    -0.6055336E-04 ( -39.13%)
   displ. norm   :     0.3088678 α      lambda       -0.1263128E-03
   maximum displ.:     0.2146316 α      in ANC's #2, #1, #4, ...

........................................................................
.............................. CYCLE   50 ..............................
........................................................................

 iter      E             dE          RMSdq      gap      omega  full diag
   1    -58.9038225 -0.589038E+02  0.916E-02    1.98       0.0  T
   2    -58.9038237 -0.120138E-05  0.537E-02    1.98       1.0  T
   3    -58.9038234  0.339707E-06  0.510E-03    1.98       3.5  T
   4    -58.9038241 -0.759512E-06  0.208E-03    1.98       8.6  T
   5    -58.9038242 -0.374486E-07  0.960E-04    1.98      18.7  T
   6    -58.9038242 -0.186762E-07  0.339E-04    1.98      53.0  T
     SCC iter.                  ...        0 min,  0.009 sec
     gradient                   ...        0 min,  0.004 sec
 * total energy  :   -58.1637459 Eh     change       -0.1065210E-03 Eh
   gradient norm :     0.0040218 Eh/α   predicted    -0.6919073E-04 ( -35.04%)
   displ. norm   :     0.4060719 α      lambda       -0.1447843E-03
   maximum displ.:     0.2812488 α      in ANC's #2, #1, #4, ...

........................................................................
.............................. CYCLE   51 ..............................
........................................................................

 iter      E             dE          RMSdq      gap      omega  full diag
   1    -58.9028916 -0.589029E+02  0.119E-01    1.98       0.0  T
   2    -58.9028933 -0.171567E-05  0.696E-02    1.98       1.0  T
   3    -58.9028930  0.316392E-06  0.583E-03    1.98       3.1  T
   4    -58.9028940 -0.947555E-06  0.252E-03    1.98       7.1  T
   5    -58.9028940 -0.531098E-07  0.106E-03    1.98      17.0  T
   6    -58.9028940 -0.208549E-07  0.433E-04    1.98      41.4  T
   7    -58.9028940 -0.153329E-08  0.276E-04    1.98      65.0  T
     SCC iter.                  ...        0 min,  0.009 sec
     gradient                   ...        0 min,  0.004 sec
 * total energy  :   -58.1638575 Eh     change       -0.1116091E-03 Eh
   gradient norm :     0.0049441 Eh/α   predicted    -0.8433000E-04 ( -24.44%)
   displ. norm   :     0.3712869 α      lambda       -0.1198018E-03
   maximum displ.:     0.2619248 α      in ANC's #1, #2, #4, ...

........................................................................
.............................. CYCLE   52 ..............................
........................................................................

 iter      E             dE          RMSdq      gap      omega  full diag
   1    -58.9032250 -0.589032E+02  0.107E-01    1.98       0.0  T
   2    -58.9032262 -0.120749E-05  0.626E-02    1.97       1.0  T
   3    -58.9032260  0.205078E-06  0.483E-03    1.97       3.7  T
   4    -58.9032266 -0.663825E-06  0.213E-03    1.97       8.4  T
   5    -58.9032267 -0.408852E-07  0.825E-04    1.97      21.8  T
   6    -58.9032267 -0.982979E-08  0.402E-04    1.97      44.7  T
     SCC iter.                  ...        0 min,  0.008 sec
     gradient                   ...        0 min,  0.004 sec
 * total energy  :   -58.1639490 Eh     change       -0.9156396E-04 Eh
   gradient norm :     0.0046307 Eh/α   predicted    -0.6816041E-04 ( -25.56%)
   displ. norm   :     0.3297796 α      lambda       -0.1146101E-03
   maximum displ.:     0.2396137 α      in ANC's #1, #2, #4, ...

........................................................................
.............................. CYCLE   53 ..............................
........................................................................

 iter      E             dE          RMSdq      gap      omega  full diag
   1    -58.9050855 -0.589051E+02  0.948E-02    1.97       0.0  T
   2    -58.9050864 -0.922037E-06  0.556E-02    1.97       1.0  T
   3    -58.9050862  0.292652E-06  0.475E-03    1.97       3.8  T
   4    -58.9050868 -0.657017E-06  0.186E-03    1.97       9.7  T
   5    -58.9050868 -0.169623E-07  0.102E-03    1.97      17.5  T
   6    -58.9050868 -0.184403E-07  0.502E-04    1.97      35.7  T
   7    -58.9050868 -0.160628E-08  0.382E-04    1.97      47.1  T
     SCC iter.                  ...        0 min,  0.009 sec
     gradient                   ...        0 min,  0.004 sec
 * total energy  :   -58.1640358 Eh     change       -0.8679990E-04 Eh
   gradient norm :     0.0030028 Eh/α   predicted    -0.6353950E-04 ( -26.80%)
   displ. norm   :     0.3768679 α      lambda       -0.9458322E-04
   maximum displ.:     0.2789268 α      in ANC's #1, #2, #3, ...

........................................................................
.............................. CYCLE   54 ..............................
........................................................................

 iter      E             dE          RMSdq      gap      omega  full diag
   1    -58.9057260 -0.589057E+02  0.108E-01    1.97       0.0  T
   2    -58.9057271 -0.109450E-05  0.633E-02    1.97       1.0  T
   3    -58.9057268  0.346189E-06  0.522E-03    1.97       3.4  T
   4    -58.9057276 -0.806313E-06  0.201E-03    1.97       8.9  T
   5    -58.9057276 -0.169693E-07  0.946E-04    1.97      19.0  T
   6    -58.9057276 -0.142824E-07  0.509E-04    1.97      35.3  T
     SCC iter.                  ...        0 min,  0.008 sec
     gradient                   ...        0 min,  0.004 sec
 * total energy  :   -58.1641101 Eh     change       -0.7426720E-04 Eh
   gradient norm :     0.0025539 Eh/α   predicted    -0.5401129E-04 ( -27.27%)
   displ. norm   :     0.3176745 α      lambda       -0.9138923E-04
   maximum displ.:     0.2384831 α      in ANC's #1, #2, #3, ...

........................................................................
.............................. CYCLE   55 ..............................
........................................................................

 iter      E             dE          RMSdq      gap      omega  full diag
   1    -58.9073893 -0.589074E+02  0.912E-02    1.96       0.0  T
   2    -58.9073902 -0.832300E-06  0.535E-02    1.96       1.0  T
   3    -58.9073896  0.599704E-06  0.535E-03    1.96       3.4  T
   4    -58.9073905 -0.959639E-06  0.191E-03    1.96       9.4  T
   5    -58.9073905 -0.215814E-07  0.114E-03    1.96      15.8  T
   6    -58.9073906 -0.147712E-07  0.668E-04    1.96      26.9  T
   7    -58.9073906 -0.364679E-08  0.508E-04    1.96      35.4  T
     SCC iter.                  ...        0 min,  0.009 sec
     gradient                   ...        0 min,  0.004 sec
 * total energy  :   -58.1641819 Eh     change       -0.7174487E-04 Eh
   gradient norm :     0.0023721 Eh/α   predicted    -0.5030664E-04 ( -29.88%)
   displ. norm   :     0.5255715 α      lambda       -0.1020996E-03
   maximum displ.:     0.3974696 α      in ANC's #1, #2, #3, ...

........................................................................
.............................. CYCLE   56 ..............................
........................................................................

 iter      E             dE          RMSdq      gap      omega  full diag
   1    -58.9038800 -0.589039E+02  0.150E-01    1.96       0.0  T
   2    -58.9038824 -0.241892E-05  0.883E-02    1.96       1.0  T
   3    -58.9038812  0.125199E-05  0.927E-03    1.96       1.9  T
   4    -58.9038834 -0.224728E-05  0.284E-03    1.96       6.3  T
   5    -58.9038835 -0.335137E-07  0.141E-03    1.96      12.7  T
   6    -58.9038835 -0.169487E-07  0.597E-04    1.96      30.1  T
   7    -58.9038835 -0.351073E-08  0.415E-04    1.96      43.3  T
     SCC iter.                  ...        0 min,  0.013 sec
     gradient                   ...        0 min,  0.004 sec
 * total energy  :   -58.1642411 Eh     change       -0.5923443E-04 Eh
   gradient norm :     0.0044250 Eh/α   predicted    -0.6515429E-04 (   9.99%)
   displ. norm   :     0.1926175 α      lambda       -0.9947606E-04
   maximum displ.:     0.1306644 α      in ANC's #1, #3, #2, ...

........................................................................
.............................. CYCLE   57 ..............................
........................................................................

 iter      E             dE          RMSdq      gap      omega  full diag
   1    -58.9064346 -0.589064E+02  0.572E-02    1.96       0.0  T
   2    -58.9064352 -0.590095E-06  0.337E-02    1.96       1.0  T
   3    -58.9064347  0.562992E-06  0.439E-03    1.96       4.1  T
   4    -58.9064354 -0.729921E-06  0.152E-03    1.96      11.8  T
   5    -58.9064354 -0.413660E-07  0.721E-04    1.96      24.9  T
   6    -58.9064354 -0.227114E-08  0.317E-04    1.96      56.7  T
     SCC iter.                  ...        0 min,  0.008 sec
     gradient                   ...        0 min,  0.004 sec
 * total energy  :   -58.1643125 Eh     change       -0.7136771E-04 Eh
   gradient norm :     0.0026725 Eh/α   predicted    -0.5159203E-04 ( -27.71%)
   displ. norm   :     0.3921476 α      lambda       -0.8403308E-04
   maximum displ.:     0.2908209 α      in ANC's #1, #3, #2, ...

........................................................................
.............................. CYCLE   58 ..............................
........................................................................

 iter      E             dE          RMSdq      gap      omega  full diag
   1    -58.9058467 -0.589058E+02  0.113E-01    1.95       0.0  T
   2    -58.9058481 -0.135731E-05  0.664E-02    1.95       1.0  T
   3    -58.9058464  0.169169E-05  0.845E-03    1.95       2.1  T
   4    -58.9058487 -0.236407E-05  0.230E-03    1.95       7.8  T
   5    -58.9058487 -0.172696E-07  0.124E-03    1.95      14.5  T
   6    -58.9058488 -0.176280E-07  0.514E-04    1.95      35.0  T
   7    -58.9058488 -0.303832E-08  0.363E-04    1.95      49.5  T
     SCC iter.                  ...        0 min,  0.009 sec
     gradient                   ...        0 min,  0.004 sec
 * total energy  :   -58.1643706 Eh     change       -0.5809546E-04 Eh
   gradient norm :     0.0023548 Eh/α   predicted    -0.4847919E-04 ( -16.55%)
   displ. norm   :     0.2437939 α      lambda       -0.5036223E-04
   maximum displ.:     0.1705187 α      in ANC's #1, #3, #2, ...

........................................................................
.............................. CYCLE   59 ..............................
........................................................................

 iter      E             dE          RMSdq      gap      omega  full diag
   1    -58.9067534 -0.589068E+02  0.744E-02    1.95       0.0  T
   2    -58.9067542 -0.768984E-06  0.438E-02    1.95       1.0  T
   3    -58.9067531  0.107594E-05  0.634E-03    1.95       2.8  T
   4    -58.9067546 -0.144019E-05  0.178E-03    1.95      10.1  T
   5    -58.9067546 -0.159599E-07  0.915E-04    1.95      19.6  T
   6    -58.9067546 -0.893181E-08  0.411E-04    1.95      43.7  T
     SCC iter.                  ...        0 min,  0.008 sec
     gradient                   ...        0 min,  0.004 sec
 * total energy  :   -58.1644055 Eh     change       -0.3493414E-04 Eh
   gradient norm :     0.0020634 Eh/α   predicted    -0.2667802E-04 ( -23.63%)
   displ. norm   :     0.2304402 α      lambda       -0.2878197E-04
   maximum displ.:     0.1707680 α      in ANC's #1, #3, #2, ...

........................................................................
.............................. CYCLE   60 ..............................
........................................................................

 iter      E             dE          RMSdq      gap      omega  full diag
   1    -58.9060778 -0.589061E+02  0.711E-02    1.95       0.0  T
   2    -58.9060783 -0.584882E-06  0.419E-02    1.95       1.0  T
   3    -58.9060777  0.639782E-06  0.544E-03    1.95       3.3  T
   4    -58.9060786 -0.913047E-06  0.158E-03    1.95      11.4  T
   5    -58.9060786 -0.108622E-07  0.854E-04    1.95      21.0  T
   6    -58.9060786 -0.784382E-08  0.403E-04    1.95      44.6  T
     SCC iter.                  ...        0 min,  0.012 sec
     gradient                   ...        0 min,  0.007 sec
 * total energy  :   -58.1644254 Eh     change       -0.1995656E-04 Eh
   gradient norm :     0.0022666 Eh/α   predicted    -0.1515722E-04 ( -24.05%)
   displ. norm   :     0.1457906 α      lambda       -0.4186389E-04
   maximum displ.:     0.0833355 α      in ANC's #3, #1, #6, ...

........................................................................
.............................. CYCLE   61 ..............................
........................................................................

 iter      E             dE          RMSdq      gap      omega  full diag
   1    -58.9088855 -0.589089E+02  0.578E-02    1.95       0.0  T
   2    -58.9088865 -0.103110E-05  0.338E-02    1.95       1.0  T
   3    -58.9088858  0.758579E-06  0.566E-03    1.95       3.2  T
   4    -58.9088869 -0.107661E-05  0.202E-03    1.95       8.9  T
   5    -58.9088869 -0.574986E-07  0.106E-03    1.95      16.9  T
   6    -58.9088869 -0.908961E-08  0.545E-04    1.95      33.0  T
   7    -58.9088869 -0.320188E-08  0.350E-04    1.95      51.3  T
     SCC iter.                  ...        0 min,  0.009 sec
     gradient                   ...        0 min,  0.004 sec
 * total energy  :   -58.1644266 Eh     change       -0.1187068E-05 Eh
   gradient norm :     0.0034933 Eh/α   predicted    -0.2137723E-04 (1700.84%)
   displ. norm   :     0.1516817 α      lambda       -0.4279433E-04
   maximum displ.:     0.1150448 α      in ANC's #1, #2, #3, ...

........................................................................
.............................. CYCLE   62 ..............................
........................................................................

 iter      E             dE          RMSdq      gap      omega  full diag
   1    -58.9066255 -0.589066E+02  0.454E-02    1.95       0.0  T
   2    -58.9066259 -0.412703E-06  0.267E-02    1.95       1.0  T
   3    -58.9066258  0.151712E-06  0.325E-03    1.95       5.5  T
   4    -58.9066260 -0.257626E-06  0.101E-03    1.95      17.7  T
   5    -58.9066260 -0.914372E-08  0.566E-04    1.95      31.7  T
   6    -58.9066260 -0.202545E-08  0.271E-04    1.95      66.2  T
     SCC iter.                  ...        0 min,  0.008 sec
     gradient                   ...        0 min,  0.004 sec
 * total energy  :   -58.1644493 Eh     change       -0.2270235E-04 Eh
   gradient norm :     0.0021438 Eh/α   predicted    -0.2189023E-04 (  -3.58%)
   displ. norm   :     0.0434779 α      lambda       -0.1028533E-04
   maximum displ.:     0.0352574 α      in ANC's #3, #1, #5, ...

........................................................................
.............................. CYCLE   63 ..............................
........................................................................

 iter      E             dE          RMSdq      gap      omega  full diag
   1    -58.9064165 -0.589064E+02  0.129E-02    1.95       0.0  T
   2    -58.9064165 -0.675216E-07  0.752E-03    1.95       2.4  T
   3    -58.9064164  0.901968E-07  0.183E-03    1.95       9.8  T
   4    -58.9064165 -0.115937E-06  0.449E-04    1.95      40.0  T
   5    -58.9064165 -0.213797E-08  0.246E-04    1.95      73.0  T
     SCC iter.                  ...        0 min,  0.006 sec
     gradient                   ...        0 min,  0.004 sec
 * total energy  :   -58.1644571 Eh     change       -0.7741024E-05 Eh
   gradient norm :     0.0015632 Eh/α   predicted    -0.5153512E-05 ( -33.43%)
   displ. norm   :     0.1157817 α      lambda       -0.1869026E-04
   maximum displ.:     0.0754335 α      in ANC's #5, #1, #2, ...

........................................................................
.............................. CYCLE   64 ..............................
........................................................................

 iter      E             dE          RMSdq      gap      omega  full diag
   1    -58.9062271 -0.589062E+02  0.356E-02    1.95       0.0  T
   2    -58.9062275 -0.380435E-06  0.209E-02    1.95       1.0  T
   3    -58.9062268  0.675039E-06  0.510E-03    1.95       3.5  T
   4    -58.9062276 -0.843055E-06  0.113E-03    1.95      15.9  T
   5    -58.9062276 -0.101907E-07  0.716E-04    1.95      25.1  T
   6    -58.9062277 -0.341515E-08  0.439E-04    1.95      40.9  T
     SCC iter.                  ...        0 min,  0.008 sec
     gradient                   ...        0 min,  0.004 sec
 * total energy  :   -58.1644721 Eh     change       -0.1502016E-04 Eh
   gradient norm :     0.0017473 Eh/α   predicted    -0.9415111E-05 ( -37.32%)
   displ. norm   :     0.1315110 α      lambda       -0.9065206E-05
   maximum displ.:     0.0929199 α      in ANC's #1, #5, #2, ...

........................................................................
.............................. CYCLE   65 ..............................
........................................................................

 iter      E             dE          RMSdq      gap      omega  full diag
   1    -58.9060729 -0.589061E+02  0.435E-02    1.95       0.0  T
   2    -58.9060731 -0.204774E-06  0.256E-02    1.95       1.0  T
   3    -58.9060731  0.385819E-07  0.228E-03    1.95       7.9  T
   4    -58.9060732 -0.122963E-06  0.940E-04    1.95      19.1  T
   5    -58.9060732 -0.428695E-08  0.452E-04    1.95      39.7  T
     SCC iter.                  ...        0 min,  0.006 sec
     gradient                   ...        0 min,  0.005 sec
 * total energy  :   -58.1644827 Eh     change       -0.1064205E-04 Eh
   gradient norm :     0.0015619 Eh/α   predicted    -0.4578556E-05 ( -56.98%)
   displ. norm   :     0.1969822 α      lambda       -0.1696872E-04
   maximum displ.:     0.1312094 α      in ANC's #1, #5, #2, ...

........................................................................
.............................. CYCLE   66 ..............................
........................................................................

 iter      E             dE          RMSdq      gap      omega  full diag
   1    -58.9067702 -0.589068E+02  0.635E-02    1.94       0.0  T
   2    -58.9067709 -0.670816E-06  0.374E-02    1.94       1.0  T
   3    -58.9067707  0.202601E-06  0.391E-03    1.94       4.6  T
   4    -58.9067711 -0.404606E-06  0.162E-03    1.94      11.1  T
   5    -58.9067711 -0.298451E-07  0.943E-04    1.94      19.1  T
   6    -58.9067712 -0.854943E-08  0.457E-04    1.94      39.3  T
     SCC iter.                  ...        0 min,  0.008 sec
     gradient                   ...        0 min,  0.004 sec
 * total energy  :   -58.1644991 Eh     change       -0.1635140E-04 Eh
   gradient norm :     0.0011666 Eh/α   predicted    -0.8633373E-05 ( -47.20%)
   displ. norm   :     0.2363364 α      lambda       -0.1092865E-04
   maximum displ.:     0.1705409 α      in ANC's #1, #5, #2, ...
 * RMSD in coord.:     0.8514440 α      energy gain  -0.1609823E-02 Eh

generating ANC from exact Hessian ...
Using Lindh-Hessian (1995)
 Shifting diagonal of input Hessian by    9.6185652837648856E-003
 Lowest  eigenvalues of input Hessian
    0.000000    0.000000    0.000000    0.000000    0.000000    0.000000
    0.010000    0.010577    0.011163    0.011527    0.012320    0.013498
    0.015648    0.017039    0.020846    0.021617    0.024907    0.027134
 Highest eigenvalues
    1.959807    2.030402    2.121515    2.152326    2.243574    2.424902


........................................................................
.............................. CYCLE   67 ..............................
........................................................................

 iter      E             dE          RMSdq      gap      omega  full diag
   1    -58.9055524 -0.589056E+02  0.734E-02    1.94       0.0  T
   2    -58.9055532 -0.743022E-06  0.432E-02    1.94       1.0  T
   3    -58.9055529  0.272873E-06  0.452E-03    1.94       4.0  T
   4    -58.9055534 -0.514056E-06  0.160E-03    1.94      11.3  T
   5    -58.9055534 -0.193905E-07  0.939E-04    1.94      19.1  T
   6    -58.9055534 -0.599641E-08  0.455E-04    1.94      39.5  T
     SCC iter.                  ...        0 min,  0.016 sec
     gradient                   ...        0 min,  0.004 sec
 * total energy  :   -58.1645055 Eh     change       -0.6364721E-05 Eh
   gradient norm :     0.0020523 Eh/α   predicted     0.0000000E+00 (-100.00%)
   displ. norm   :     0.0127061 α      lambda       -0.1081098E-04
   maximum displ.:     0.0063151 α      in ANC's #7, #1, #6, ...

........................................................................
.............................. CYCLE   68 ..............................
........................................................................

 iter      E             dE          RMSdq      gap      omega  full diag
   1    -58.9065955 -0.589066E+02  0.754E-03    1.94       0.0  T
   2    -58.9065956 -0.971170E-07  0.447E-03    1.94       4.0  T
   3    -58.9065956  0.198676E-07  0.168E-03    1.94      10.7  T
   4    -58.9065956 -0.387787E-07  0.317E-04    1.94      56.7  T
   5    -58.9065956 -0.151954E-08  0.193E-04    1.94      92.9  T
     SCC iter.                  ...        0 min,  0.006 sec
     gradient                   ...        0 min,  0.004 sec
 * total energy  :   -58.1645128 Eh     change       -0.7355468E-05 Eh
   gradient norm :     0.0007892 Eh/α   predicted    -0.5411122E-05 ( -26.43%)
   displ. norm   :     0.0249171 α      lambda       -0.3956985E-05
   maximum displ.:     0.0141096 α      in ANC's #7, #1, #3, ...

........................................................................
.............................. CYCLE   69 ..............................
........................................................................

 iter      E             dE          RMSdq      gap      omega  full diag
   1    -58.9073600 -0.589074E+02  0.128E-02    1.94       0.0  T
   2    -58.9073602 -0.219364E-06  0.746E-03    1.94       2.4  T
   3    -58.9073602  0.528269E-07  0.228E-03    1.94       7.9  T
   4    -58.9073603 -0.862741E-07  0.600E-04    1.94      29.9  T
   5    -58.9073603 -0.598935E-08  0.353E-04    1.94      50.9  T
     SCC iter.                  ...        0 min,  0.006 sec
     gradient                   ...        0 min,  0.004 sec
 * total energy  :   -58.1645158 Eh     change       -0.3018986E-05 Eh
   gradient norm :     0.0007019 Eh/α   predicted    -0.1979341E-05 ( -34.44%)
   displ. norm   :     0.0176929 α      lambda       -0.1539002E-05
   maximum displ.:     0.0098214 α      in ANC's #7, #1, #3, ...

   *** GEOMETRY OPTIMIZATION CONVERGED AFTER 69 ITERATIONS ***

------------------------------------------------------------------------
 total energy gain   :        -0.0211142 Eh      -13.2494 kcal/mol
 total RMSD          :         1.9315105 a0        1.0221 Å
 total power (kW/mol):        -0.8034100 (step)  -46.0293 (real)
------------------------------------------------------------------------

 ANCopt (total)                0 d,  0 h,  0 min,  1.204 sec
 optimizer setup                ...        0 min,  0.000 sec (  0.015%)
 model hessian                  ...        0 min,  0.020 sec (  1.702%)
 ANC generation                 ...        0 min,  0.002 sec (  0.193%)
 coordinate transformation      ...        0 min,  0.001 sec (  0.067%)
 single point calculation       ...        0 min,  1.153 sec ( 95.696%)
 optimization log               ...        0 min,  0.012 sec (  1.026%)
 hessian update                 ...        0 min,  0.006 sec (  0.468%)
 rational function              ...        0 min,  0.007 sec (  0.582%)

================
 final structure:
================
31
 xtb: 6.7.1 (edcfbbe)
N            1.19357467522981        0.09169015223484       -0.89624085785248
C            0.91370825284453       -0.97317654939937       -0.13954448000993
C           -0.42013004564575       -1.30514129403354        0.13214933667255
C           -1.39662714920143       -0.47756092509292       -0.40559662392169
N           -1.09593994275612        0.58630336819086       -1.14664794476098
C            0.18669464242459        0.80646003152631       -1.35308256293443
C           -2.85257209636416       -0.73270207245614       -0.17379668536972
O           -3.73652112067828        0.04825783778411       -0.38597025407481
O           -3.07407220201995       -1.96218812422806        0.31859915834165
C            2.05267284044534       -1.75007257902606        0.34823407987764
C            3.31362420919293       -1.52624999618346       -0.20395445173015
C            4.41410448868517       -2.24562708763187        0.21224408227025
C            4.29341561237398       -3.21440714657490        1.20602561232831
C            3.02684878583268       -3.42401437166972        1.77226774957829
C            1.92546168488499       -2.71043496383612        1.35376995266263
Cl           2.86723486199276       -4.60480975376987        3.02113883994803
O            5.30539114520680       -3.97700393920867        1.67542455319657
C            6.57451352016868       -3.82594870813768        1.10880225654737
C            7.44763595538054       -2.68665729660166        1.54780696177374
C            7.73375388609414       -4.08299564909367        2.01576817697829
H           -0.69747848071249       -2.16564438280378        0.71535667995751
H            0.43927610924480        1.66463172759759       -1.96286457377837
H           -4.02553423209613       -2.09573612085961        0.45443275074408
H            3.41141345710221       -0.77553169737258       -0.97109481314243
H            5.37810242349618       -2.05214301158413       -0.23002194157356
H            0.97823436165068       -2.90063594188041        1.83129288180183
H            6.62697626359026       -4.15895651369150        0.07562903298433
H            8.10431451844963       -2.23513004036837        0.82080200636372
H            7.03436878619264       -1.99267787864339        2.26320475765003
H            7.50446485300436       -4.32538960652235        3.04120077373348
H            8.58807993598678       -4.60474746666676        1.61542554573251

 Bond Distances (Angstroems)
 ---------------------------
N1-C2=1.3360         N1-C6=1.3166         C2-N1=1.3360         C2-C3=1.4011         C2-C10=1.4624        C3-C2=1.4011         
C3-C4=1.3884         C3-H21=1.0759        C4-C3=1.3884         C4-N5=1.3309         C4-C7=1.4962         N5-C4=1.3309         
N5-C6=1.3177         C6-N1=1.3166         C6-N5=1.3177         C6-H22=1.0826        C7-C4=1.4962         C7-O8=1.1984         
C7-O9=1.3428         O8-C7=1.1984         O9-C7=1.3428         O9-H23=0.9703        C10-C2=1.4624        C10-C11=1.3946       
C10-C15=1.3963       C11-C10=1.3946       C11-C12=1.3791       C11-H24=1.0778       C12-C11=1.3791       C12-C13=1.3931       
C12-H25=1.0781       C13-C12=1.3931       C13-C14=1.4031       C13-O17=1.3513       C14-C13=1.4031       C14-C15=1.3775       
C14-Cl16=1.7261      C15-C10=1.3963       C15-C14=1.3775       C15-H26=1.0777       Cl16-C14=1.7261      O17-C13=1.3513       
O17-C18=1.3981       C18-O17=1.3981       C18-C19=1.5010       C18-C20=1.4942       C18-H27=1.0868       C19-C18=1.5010       
C19-C20=1.5002       C19-H28=1.0787       C19-H29=1.0790       C20-C18=1.4942       C20-C19=1.5002       C20-H30=1.0784       
C20-H31=1.0781       H21-C3=1.0759        H22-C6=1.0826        H23-O9=0.9703        H24-C11=1.0778       H25-C12=1.0781       
H26-C15=1.0777       H27-C18=1.0868       H28-C19=1.0787       H29-C19=1.0790       H30-C20=1.0784       H31-C20=1.0781       
 C  H  Rav=1.0793 sigma=0.0030  Rmin=1.0759  Rmax=1.0868    10
 C  C  Rav=1.4298 sigma=0.0495  Rmin=1.3775  Rmax=1.5010    13
 N  C  Rav=1.3253 sigma=0.0084  Rmin=1.3166  Rmax=1.3360     4
 O  H  Rav=0.9703 sigma=0.0000  Rmin=0.9703  Rmax=0.9703     1
 O  C  Rav=1.3227 sigma=0.0747  Rmin=1.1984  Rmax=1.3981     4
 Cl C  Rav=1.7261 sigma=0.0000  Rmin=1.7261  Rmax=1.7261     1

 selected bond angles (degree)
 --------------------
C6-N1-C2=117.97                C3-C2-N1=119.87                C10-C2-N1=116.69               C10-C2-C3=123.43               
C4-C3-C2=116.95                H21-C3-C2=122.69               H21-C3-C4=120.36               N5-C4-C3=122.22                
C7-C4-C3=121.52                C7-C4-N5=116.26                C6-N5-C4=116.15                N5-C6-N1=126.82                
H22-C6-N1=116.57               H22-C6-N5=116.60               O8-C7-C4=125.39                O9-C7-C4=111.93                
O9-C7-O8=122.68                H23-O9-C7=109.82               C11-C10-C2=119.13              C15-C10-C2=122.32              
C15-C10-C11=118.55             

 selected dihedral angles (degree)
 ---------------------------------
C3-C2-N1-C6=  0.68            C10-C2-N1-C6=179.75           C4-C3-C2-N1=359.39            C4-C3-C2-C10=180.38           
H21-C3-C2-N1=178.46           H21-C3-C2-C10=359.45          N5-C4-C3-C2=359.97            N5-C4-C3-H21=180.88           
C7-C4-C3-C2=180.33            C7-C4-C3-H21=  1.24           C6-N5-C4-C3=  0.56            C6-N5-C4-C7=180.22            
N5-C6-N1-C2=359.89            H22-C6-N1-C2=179.94           N1-C6-N5-C4=359.48            H22-C6-N5-C4=179.44           
O8-C7-C4-C3=165.56            O8-C7-C4-N5=345.90            O9-C7-C4-C3=345.91            O9-C7-C4-N5=166.25            
H23-O9-C7-C4=180.17           H23-O9-C7-O8=  0.51           C11-C10-C2-N1=346.95          C11-C10-C2-C3=166.00          
C15-C10-C2-N1=166.79          C15-C10-C2-C3=345.83          
           -------------------------------------------------
          |                Final Singlepoint                |
           -------------------------------------------------

          ...................................................
          :                      SETUP                      :
          :.................................................:
          :  # basis functions                  97          :
          :  # atomic orbitals                  96          :
          :  # shells                           52          :
          :  # electrons                       102          :
          :  max. iterations                   250          :
          :  Hamiltonian                  GFN2-xTB          :
          :  restarted?                      false          :
          :  GBSA solvation                  false          :
          :  PC potential                    false          :
          :  electronic temp.          300.0000000     K    :
          :  accuracy                    1.0000000          :
          :  -> integral cutoff          0.2500000E+02      :
          :  -> integral neglect         0.1000000E-07      :
          :  -> SCF convergence          0.1000000E-05 Eh   :
          :  -> wf. convergence          0.1000000E-03 e    :
          :  Broyden damping             0.4000000          :
          :  net charge                          0          :
          :  unpaired electrons                  0          :
          ...................................................

 iter      E             dE          RMSdq      gap      omega  full diag
   1    -58.9073603 -0.589074E+02  0.241E-04    1.94       0.0  T
   2    -58.9073603 -0.275158E-09  0.199E-04    1.94      90.2  T
   3    -58.9073603 -0.166374E-09  0.167E-04    1.94     107.3  T

   *** convergence criteria satisfied after 3 iterations ***

         #    Occupation            Energy/Eh            Energy/eV
      -------------------------------------------------------------
         1        2.0000           -1.0580492             -28.7910
       ...           ...                  ...                  ...
        45        2.0000           -0.4366479             -11.8818
        46        2.0000           -0.4352645             -11.8441
        47        2.0000           -0.4218856             -11.4801
        48        2.0000           -0.4169450             -11.3457
        49        2.0000           -0.4107885             -11.1781
        50        2.0000           -0.3943323             -10.7303
        51        2.0000           -0.3774395             -10.2707 (HOMO)
        52                         -0.3062381              -8.3332 (LUMO)
        53                         -0.2811454              -7.6504
        54                         -0.2493205              -6.7844
        55                         -0.2342292              -6.3737
        56                         -0.2047114              -5.5705
       ...                                ...                  ...
        96                          0.6894700              18.7614
      -------------------------------------------------------------
                  HL-Gap            0.0712014 Eh            1.9375 eV
             Fermi-level           -0.3418388 Eh           -9.3019 eV

 SCC (total)                   0 d,  0 h,  0 min,  0.009 sec
 SCC setup                      ...        0 min,  0.000 sec (  1.631%)
 Dispersion                     ...        0 min,  0.000 sec (  1.459%)
 classical contributions        ...        0 min,  0.000 sec (  0.246%)
 integral evaluation            ...        0 min,  0.001 sec ( 14.083%)
 iterations                     ...        0 min,  0.004 sec ( 40.623%)
 molecular gradient             ...        0 min,  0.004 sec ( 40.828%)
 printout                       ...        0 min,  0.000 sec (  0.974%)

         :::::::::::::::::::::::::::::::::::::::::::::::::::::
         ::                     SUMMARY                     ::
         :::::::::::::::::::::::::::::::::::::::::::::::::::::
         :: total energy             -58.164515827334 Eh    ::
         :: gradient norm              0.000701964641 Eh/a0 ::
         :: HOMO-LUMO gap              1.937487851089 eV    ::
         ::.................................................::
         :: SCC energy               -58.907562483927 Eh    ::
         :: -> isotropic ES            0.078039041864 Eh    ::
         :: -> anisotropic ES          0.004673584875 Eh    ::
         :: -> anisotropic XC          0.025020163968 Eh    ::
         :: -> dispersion             -0.032885223419 Eh    ::
         :: repulsion energy           0.743046656593 Eh    ::
         :: add. restraining           0.000000000000 Eh    ::
         :: total charge               0.000000000000 e     ::
         :::::::::::::::::::::::::::::::::::::::::::::::::::::

           -------------------------------------------------
          |                Property Printout                |
           -------------------------------------------------

    * Orbital Energies and Occupations

         #    Occupation            Energy/Eh            Energy/eV
      -------------------------------------------------------------
         1        2.0000           -1.0580492             -28.7910
       ...           ...                  ...                  ...
        39        2.0000           -0.4711816             -12.8215
        40        2.0000           -0.4694263             -12.7737
        41        2.0000           -0.4594878             -12.5033
        42        2.0000           -0.4537415             -12.3469
        43        2.0000           -0.4514495             -12.2846
        44        2.0000           -0.4464667             -12.1490
        45        2.0000           -0.4366479             -11.8818
        46        2.0000           -0.4352645             -11.8441
        47        2.0000           -0.4218856             -11.4801
        48        2.0000           -0.4169450             -11.3457
        49        2.0000           -0.4107885             -11.1781
        50        2.0000           -0.3943323             -10.7303
        51        2.0000           -0.3774395             -10.2707 (HOMO)
        52                         -0.3062381              -8.3332 (LUMO)
        53                         -0.2811454              -7.6504
        54                         -0.2493205              -6.7844
        55                         -0.2342292              -6.3737
        56                         -0.2047114              -5.5705
        57                         -0.1442054              -3.9240
        58                         -0.1355669              -3.6890
        59                         -0.0961250              -2.6157
        60                         -0.0783729              -2.1326
        61                          0.0019368               0.0527
        62                          0.0109365               0.2976
       ...                                ...                  ...
        96                          0.6894700              18.7614
      -------------------------------------------------------------
                  HL-Gap            0.0712014 Eh            1.9375 eV
             Fermi-level           -0.3418388 Eh           -9.3019 eV

     #   Z          covCN         q      C6AA      α(0)
     1   7 N        1.843    -0.237    27.040     7.706
     2   6 C        2.974     0.116    25.435     8.273
     3   6 C        2.910    -0.049    29.213     8.863
     4   6 C        2.984     0.086    26.074     8.376
     5   7 N        1.839    -0.220    26.636     7.648
     6   6 C        2.911     0.153    24.692     8.148
     7   6 C        2.696     0.354    20.997     7.500
     8   8 O        0.856    -0.370    21.082     6.156
     9   8 O        1.660    -0.378    20.435     6.102
    10   6 C        2.979    -0.003    28.094     8.694
    11   6 C        2.925    -0.029    28.733     8.790
    12   6 C        2.917    -0.065    29.620     8.925
    13   6 C        2.906     0.144    24.859     8.175
    14   6 C        2.886     0.075    26.324     8.411
    15   6 C        2.958    -0.044    29.089     8.846
    16  17 Cl       0.969    -0.154   103.969    15.600
    17   8 O        1.707    -0.241    17.986     5.726
    18   6 C        3.756     0.113    18.773     6.178
    19   6 C        3.805    -0.077    21.968     6.672
    20   6 C        3.806    -0.071    21.861     6.656
    21   1 H        0.926     0.065     2.144     2.290
    22   1 H        0.925     0.057     2.233     2.337
    23   1 H        0.804     0.335     0.626     1.242
    24   1 H        0.926     0.077     2.014     2.219
    25   1 H        0.926     0.056     2.242     2.341
    26   1 H        0.926     0.067     2.114     2.274
    27   1 H        0.925     0.029     2.600     2.522
    28   1 H        0.926     0.044     2.397     2.421
    29   1 H        0.926     0.054     2.275     2.359
    30   1 H        0.926     0.064     2.157     2.297
    31   1 H        0.926     0.049     2.332     2.388

 Mol. C6AA /au·bohr⁶  :      14368.337345
 Mol. C8AA /au·bohr⁸  :     368381.367619
 Mol. α(0) /au        :        186.136997


Wiberg/Mayer (AO) data.
largest (>0.10) Wiberg bond orders for each atom

 ---------------------------------------------------------------------------
     #   Z sym  total        # sym  WBO       # sym  WBO       # sym  WBO
 ---------------------------------------------------------------------------
     1   7 N    3.063 --     6 C    1.442     2 C    1.372
     2   6 C    3.973 --     1 N    1.372     3 C    1.352    10 C    1.074
     3   6 C    3.985 --     4 C    1.422     2 C    1.352    21 H    0.960
                             6 C    0.104
     4   6 C    3.978 --     3 C    1.422     5 N    1.383     7 C    0.969
     5   7 N    3.056 --     6 C    1.431     4 C    1.383
     6   6 C    3.964 --     1 N    1.442     5 N    1.431    22 H    0.954
                             3 C    0.104
     7   6 C    3.920 --     8 O    1.782     9 O    1.121     4 C    0.969
     8   8 O    2.073 --     7 C    1.782     9 O    0.180
     9   8 O    2.196 --     7 C    1.121    23 H    0.864     8 O    0.180
    10   6 C    3.986 --    11 C    1.367    15 C    1.356     2 C    1.074
    11   6 C    3.987 --    12 C    1.465    10 C    1.367    24 H    0.963
    12   6 C    3.985 --    11 C    1.465    13 C    1.354    25 H    0.963
    13   6 C    3.935 --    12 C    1.354    14 C    1.299    17 O    1.090
    14   6 C    3.919 --    15 C    1.451    13 C    1.299    16 Cl   0.983
    15   6 C    3.986 --    14 C    1.451    10 C    1.356    26 H    0.960
    16  17 Cl   1.123 --    14 C    0.983
    17   8 O    2.275 --    13 C    1.090    18 C    0.966
    18   6 C    3.893 --    20 C    0.973    17 O    0.966    27 H    0.961
                            19 C    0.960
    19   6 C    3.937 --    28 H    0.980    29 H    0.979    20 C    0.979
                            18 C    0.960
    20   6 C    3.941 --    31 H    0.980    19 C    0.979    30 H    0.977
                            18 C    0.973
    21   1 H    0.996 --     3 C    0.960
    22   1 H    0.996 --     6 C    0.954
    23   1 H    0.887 --     9 O    0.864
    24   1 H    0.993 --    11 C    0.963
    25   1 H    0.996 --    12 C    0.963
    26   1 H    0.995 --    15 C    0.960
    27   1 H    0.998 --    18 C    0.961
    28   1 H    0.998 --    19 C    0.980
    29   1 H    0.997 --    19 C    0.979
    30   1 H    0.996 --    20 C    0.977
    31   1 H    0.997 --    20 C    0.980
 ---------------------------------------------------------------------------

Topologies differ in total number of bonds
Writing topology from bond orders to xtbtopo.mol

molecular dipole:
                 x           y           z       tot (Debye)
 q only:        1.683      -0.514      -0.097
   full:        1.607      -0.985       0.139       4.803
molecular quadrupole (traceless):
                xx          xy          yy          xz          yz          zz
 q only:       23.171       2.668     -11.819      -6.804       6.739     -11.352
  q+dip:       23.992       3.495     -11.987      -9.845       5.642     -12.005
   full:       21.314       4.139     -11.254      -8.996       8.525     -10.060

           -------------------------------------------------
          |                Geometry Summary                 |
           -------------------------------------------------

      molecular mass/u    :      290.7022096
   center of mass at/Å    :        1.9593257      -2.1050380       0.6916664
  moments of inertia/u·Å² :        0.6667692E+03   0.3927838E+04   0.4544130E+04
rotational constants/cm⁻¹ :        0.2528256E-01   0.4291835E-02   0.3709760E-02

 * 31 selected distances

     #   Z          #   Z                                           value/Å
     1   7 N        2   6 C                                       1.3359850
     2   6 C        3   6 C                                       1.4011221
     3   6 C        4   6 C                                       1.3883828
     4   6 C        5   7 N                                       1.3309310
     1   7 N        6   6 C                                       1.3165896
     5   7 N        6   6 C                                       1.3176631
     7   6 C        8   8 O                                       1.1984499
     7   6 C        9   8 O                                       1.3428150
    10   6 C       11   6 C                                       1.3946352
    11   6 C       12   6 C                                       1.3790511
    12   6 C       13   6 C                                       1.3930911
    13   6 C       14   6 C                                       1.4031241
    10   6 C       15   6 C                                       1.3962741
    14   6 C       15   6 C                                       1.3774578
    14   6 C       16  17 Cl                                      1.7261037 (max)
    13   6 C       17   8 O                                       1.3512898
    17   8 O       18   6 C                                       1.3980524
    18   6 C       19   6 C                                       1.5010174
    18   6 C       20   6 C                                       1.4941549
    19   6 C       20   6 C                                       1.5002041
     3   6 C       21   1 H                                       1.0758804
     6   6 C       22   1 H                                       1.0826312
     9   8 O       23   1 H                                       0.9703432 (min)
    11   6 C       24   1 H                                       1.0777965
    12   6 C       25   1 H                                       1.0781130
    15   6 C       26   1 H                                       1.0777033
    18   6 C       27   1 H                                       1.0867813
    19   6 C       28   1 H                                       1.0787215
    19   6 C       29   1 H                                       1.0789770
    20   6 C       30   1 H                                       1.0783508
    20   6 C       31   1 H                                       1.0781338

 * 6 distinct bonds (by element types)

   Z      Z             #   av. dist./Å        max./Å        min./Å
   1 H    6 C          10     1.0793089     1.0867813     1.0758804
   6 C    6 C          11     1.4207741     1.5010174     1.3774578
   6 C    7 N           4     1.3252922     1.3359850     1.3165896
   1 H    8 O           1     0.9703432     0.9703432     0.9703432
   6 C    8 O           4     1.3226518     1.3980524     1.1984499
   6 C   17 Cl          1     1.7261037     1.7261037     1.7261037


optimized geometry written to: xtbopt.xyz


           -------------------------------------------------
          | TOTAL ENERGY              -58.164515827334 Eh   |
          | GRADIENT NORM               0.000701964641 Eh/α |
          | HOMO-LUMO GAP               1.937487851089 eV   |
           -------------------------------------------------

------------------------------------------------------------------------
 * finished run on 2024/12/17 at 14:07:58.653     
------------------------------------------------------------------------
 total:
 * wall-time:     0 d,  0 h,  0 min,  1.261 sec
 *  cpu-time:     0 d,  0 h,  0 min,  9.724 sec
 * ratio c/w:     7.709 speedup
 SCF:
 * wall-time:     0 d,  0 h,  0 min,  0.028 sec
 *  cpu-time:     0 d,  0 h,  0 min,  0.218 sec
 * ratio c/w:     7.693 speedup
 ANC optimizer:
 * wall-time:     0 d,  0 h,  0 min,  1.215 sec
 *  cpu-time:     0 d,  0 h,  0 min,  9.377 sec
 * ratio c/w:     7.717 speedup

