31
 energy: -58.163365854437 gnorm: 0.000650413577 xtb: 6.7.1 (edcfbbe)
C           -0.21519726895005       -0.28662893699773        0.45032121788166
C           -0.45071279701975       -1.63588414989079        0.14679793912411
C            0.59532130793784       -2.48923665807529       -0.15347010889539
C            1.89341374668621       -2.01659374481963       -0.15042609017159
C            2.15252547609550       -0.68617560141515        0.16940191614497
C            1.09399970329516        0.17274634734472        0.46405691384884
C            3.53887193618734       -0.21325983721835        0.18211880926628
C            3.96367933522209        0.87702183125279        0.95155281552867
C            5.30834258164532        1.21502491208422        0.87183785539007
N            6.16114230838506        0.54467074934926        0.10082492149040
C            5.66529067513454       -0.47519811832132       -0.56966615071347
N            4.41391990716279       -0.88768653017247       -0.56557172648815
C            5.88160814358947        2.35421516633375        1.65419561857642
O            7.00453369055705        2.76234196737600        1.56378954850972
O            4.98101307852537        2.89283047271974        2.49433527678826
Cl          -2.07306661057381       -2.21033341970708        0.14207582660850
O           -1.30603417111479        0.47604721248196        0.71252238673412
C           -1.12277661390239        1.83350471608479        0.98619506851617
C           -0.84886778150794        2.78386170336619       -0.14408289884151
C           -2.20074054226014        2.75133357054846        0.50601303439271
H            0.38457330762471       -3.51959862082398       -0.39115194213770
H            2.71956360680746       -2.66604711768452       -0.38869120342448
H            1.28530782715730        1.21358906557440        0.66988456249153
H            3.29731939595427        1.42089101804068        1.59869364154723
H            6.35682332726264       -1.03066798419256       -1.18977252891379
H            5.39018529232773        3.62058217283451        2.98948046799357
H           -0.66073846522071        2.02277228921012        1.95245796081151
H           -0.20192831369646        3.62776332181519        0.04082392247080
H           -0.75762312014742        2.36445660664688       -1.13450800823320
H           -3.01073071226142        2.30082368849813       -0.04535884581050
H           -2.49645825089887        3.56994390776171        1.14263979951274
