      -----------------------------------------------------------      
     |                   =====================                   |     
     |                           x T B                           |     
     |                   =====================                   |     
     |                         S. Grimme                         |     
     |          Mulliken Center for Theoretical Chemistry        |     
     |                    University of Bonn                     |     
      -----------------------------------------------------------      

   * xtb version 6.7.1 (edcfbbe) compiled by 'conda@3ef47c1a292c' on 2024-11-25

   xtb is free software: you can redistribute it and/or modify it under
   the terms of the GNU Lesser General Public License as published by
   the Free Software Foundation, either version 3 of the License, or
   (at your option) any later version.
   
   xtb is distributed in the hope that it will be useful,
   but WITHOUT ANY WARRANTY; without even the implied warranty of
   MERCHANTABILITY or FITNESS FOR A PARTICULAR PURPOSE.  See the
   GNU Lesser General Public License for more details.
   
   Cite this work as:
   * C. Bannwarth, E. Caldeweyher, S. Ehlert, A. Hansen, P. Pracht,
     J. Seibert, S. Spicher, S. Grimme, WIREs Comput. Mol. Sci., 2020, 11,
     e01493. DOI: 10.1002/wcms.1493
   
   for GFN2-xTB:
   * C. Bannwarth, S. Ehlert and S. Grimme., J. Chem. Theory Comput., 2019,
     15, 1652-1671. DOI: 10.1021/acs.jctc.8b01176
   for GFN1-xTB:
   * S. Grimme, C. Bannwarth, P. Shushkov, J. Chem. Theory Comput., 2017,
     13, 1989-2009. DOI: 10.1021/acs.jctc.7b00118
   for GFN0-xTB:
   * P. Pracht, E. Caldeweyher, S. Ehlert, S. Grimme, ChemRxiv, 2019, preprint.
     DOI: 10.26434/chemrxiv.8326202.v1
   for GFN-FF:
   * S. Spicher and S. Grimme, Angew. Chem. Int. Ed., 2020, 59, 15665-15673.
     DOI: 10.1002/anie.202004239
   
   for ALPB and GBSA implicit solvation:
   * S. Ehlert, M. Stahn, S. Spicher, S. Grimme, J. Chem. Theory Comput.,
     2021, 17, 4250-4261. DOI: 10.1021/acs.jctc.1c00471
   
   for ddCOSMO and CPCM-X implicit solvation:
   * M. Stahn, S. Ehlert, S. Grimme, J. Phys. Chem. A,
     2023, XX, XXXX-XXXX. DOI: 10.1021/acs.jpca.3c04382
   
   for DFT-D4:
   * E. Caldeweyher, C. Bannwarth and S. Grimme, J. Chem. Phys., 2017,
     147, 034112. DOI: 10.1063/1.4993215
   * E. Caldeweyher, S. Ehlert, A. Hansen, H. Neugebauer, S. Spicher,
     C. Bannwarth and S. Grimme, J. Chem. Phys., 2019, 150, 154122.
     DOI: 10.1063/1.5090222
   * E. Caldeweyher, J.-M. Mewes, S. Ehlert and S. Grimme, Phys. Chem. Chem. Phys.
     2020, 22, 8499-8512. DOI: 10.1039/D0CP00502A
   
   for sTDA-xTB:
   * S. Grimme and C. Bannwarth, J. Chem. Phys., 2016, 145, 054103.
     DOI: 10.1063/1.4959605
   
   in the mass-spec context:
   * V. Asgeirsson, C. Bauer and S. Grimme, Chem. Sci., 2017, 8, 4879.
     DOI: 10.1039/c7sc00601b
   * J. Koopman and S. Grimme, ACS Omega 2019, 4, 12, 15120-15133.
     DOI: 10.1021/acsomega.9b02011
   
   for metadynamics refer to:
   * S. Grimme, J. Chem. Theory Comput., 2019, 155, 2847-2862
     DOI: 10.1021/acs.jctc.9b00143
   
   for SPH calculations refer to:
   * S. Spicher and S. Grimme, J. Chem. Theory Comput., 2021, 17, 1701-1714
     DOI: 10.1021/acs.jctc.0c01306
   
   for ONIOM refer to:
   * C. Plett, A. Katbashev, S. Ehlert, S. Grimme, M. Bursch,
     Phys. Chem. Chem. Phys., 2023, 25, 17860-17868. DOI: 10.1039/D3CP02178E
   
   for DIPRO refer to:
   * J. Kohn, N. Gildemeister, S. Grimme, D. Fazzi, A. Hansen,
     J. Chem. Phys., 2023, just accepted.
   
   for PTB refer to:
   * S. Grimme, M. Mueller, A. Hansen, J. Chem. Phys., 2023, 158, 124111.
     DOI: 10.1063/5.0137838
   
   with help from (in alphabetical order)
   P. Atkinson, C. Bannwarth, F. Bohle, G. Brandenburg, E. Caldeweyher
   M. Checinski, S. Dohm, S. Ehlert, S. Ehrlich, I. Gerasimov, C. Hölzer
   A. Katbashev, J. Kohn, J. Koopman, C. Lavigne, S. Lehtola, F. März, M. Müller,
   F. Musil, H. Neugebauer, J. Pisarek, C. Plett, P. Pracht, F. Pultar,
   J. Seibert, P. Shushkov, S. Spicher, M. Stahn, M. Steiner, T. Strunk,
   J. Stückrath, T. Rose, and J. Unsleber
   
 * started run on 2024/12/17 at 14:08:17.749     
   ID    Z sym.   atoms
    1    6 C      1-9, 11, 13, 18-20
    2    7 N      10, 12
    3    8 O      14, 15, 17
    4   17 Cl     16
    5    1 H      21-31

           -------------------------------------------------
          |                Calculation Setup                |
           -------------------------------------------------

          program call               : xtb K007.xyz --opt --namespace K007
          calculation namespace      : K007
          coordinate file            : K007.xyz
          omp threads                :                     8


           -------------------------------------------------
          |                 G F N 2 - x T B                 |
           -------------------------------------------------

        Reference                      10.1021/acs.jctc.8b01176
      * Hamiltonian:
        H0-scaling (s, p, d)           1.850000    2.230000    2.230000
        zeta-weighting                 0.500000
      * Dispersion:
        s8                             2.700000
        a1                             0.520000
        a2                             5.000000
        s9                             5.000000
      * Repulsion:
        kExp                           1.500000    1.000000
        rExp                           1.000000
      * Coulomb:
        alpha                          2.000000
        third order                    shell-resolved
        anisotropic                    true
        a3                             3.000000
        a5                             4.000000
        cn-shift                       1.200000
        cn-exp                         4.000000
        max-rad                        5.000000


          ...................................................
          :                      SETUP                      :
          :.................................................:
          :  # basis functions                  97          :
          :  # atomic orbitals                  96          :
          :  # shells                           52          :
          :  # electrons                       102          :
          :  max. iterations                   250          :
          :  Hamiltonian                  GFN2-xTB          :
          :  restarted?                      false          :
          :  GBSA solvation                  false          :
          :  PC potential                    false          :
          :  electronic temp.          300.0000000     K    :
          :  accuracy                    1.0000000          :
          :  -> integral cutoff          0.2500000E+02      :
          :  -> integral neglect         0.1000000E-07      :
          :  -> SCF convergence          0.1000000E-05 Eh   :
          :  -> wf. convergence          0.1000000E-03 e    :
          :  Broyden damping             0.4000000          :
          :  net charge                          0          :
          :  unpaired electrons                  0          :
          ...................................................

 iter      E             dE          RMSdq      gap      omega  full diag
   1    -58.7738834 -0.587739E+02  0.474E+00    2.26       0.0  T
   2    -58.8343482 -0.604648E-01  0.278E+00    2.21       1.0  T
   3    -58.8302949  0.405326E-02  0.125E+00    1.97       1.0  T
   4    -58.8433182 -0.130232E-01  0.302E-01    1.88       1.0  T
   5    -58.8451858 -0.186757E-02  0.116E-01    1.86       1.0  T
   6    -58.8454837 -0.297971E-03  0.497E-02    1.85       1.0  T
   7    -58.8454897 -0.595272E-05  0.272E-02    1.86       1.0  T
   8    -58.8455006 -0.109425E-04  0.161E-02    1.86       1.1  T
   9    -58.8455027 -0.203426E-05  0.112E-02    1.86       1.6  T
  10    -58.8455038 -0.111286E-05  0.715E-03    1.86       2.5  T
  11    -58.8455045 -0.758367E-06  0.362E-03    1.86       5.0  T
  12    -58.8455047 -0.136890E-06  0.152E-03    1.86      11.8  T
  13    -58.8455047 -0.297292E-07  0.914E-04    1.86      19.6  T
  14    -58.8455047 -0.705496E-08  0.606E-04    1.86      29.6  T

   *** convergence criteria satisfied after 14 iterations ***

         #    Occupation            Energy/Eh            Energy/eV
      -------------------------------------------------------------
         1        2.0000           -1.0626311             -28.9157
       ...           ...                  ...                  ...
        45        2.0000           -0.4355891             -11.8530
        46        2.0000           -0.4315829             -11.7440
        47        2.0000           -0.4264383             -11.6040
        48        2.0000           -0.4222550             -11.4901
        49        2.0000           -0.4146547             -11.2833
        50        2.0000           -0.4047693             -11.0143
        51        2.0000           -0.3869181             -10.5286 (HOMO)
        52                         -0.3185758              -8.6689 (LUMO)
        53                         -0.2864469              -7.7946
        54                         -0.2565423              -6.9809
        55                         -0.2508094              -6.8249
        56                         -0.2228491              -6.0640
       ...                                ...                  ...
        96                          0.6340343              17.2530
      -------------------------------------------------------------
                  HL-Gap            0.0683422 Eh            1.8597 eV
             Fermi-level           -0.3527470 Eh           -9.5987 eV

 SCC (total)                   0 d,  0 h,  0 min,  0.028 sec
 SCC setup                      ...        0 min,  0.000 sec (  0.475%)
 Dispersion                     ...        0 min,  0.000 sec (  1.247%)
 classical contributions        ...        0 min,  0.000 sec (  0.209%)
 integral evaluation            ...        0 min,  0.003 sec ( 10.242%)
 iterations                     ...        0 min,  0.020 sec ( 73.452%)
 molecular gradient             ...        0 min,  0.004 sec ( 13.965%)
 printout                       ...        0 min,  0.000 sec (  0.353%)

         :::::::::::::::::::::::::::::::::::::::::::::::::::::
         ::                     SUMMARY                     ::
         :::::::::::::::::::::::::::::::::::::::::::::::::::::
         :: total energy             -58.146988119823 Eh    ::
         :: gradient norm              0.081954305312 Eh/a0 ::
         :: HOMO-LUMO gap              1.859686324538 eV    ::
         ::.................................................::
         :: SCC energy               -58.845569604089 Eh    ::
         :: -> isotropic ES            0.081434105588 Eh    ::
         :: -> anisotropic ES          0.006179123642 Eh    ::
         :: -> anisotropic XC          0.027509710209 Eh    ::
         :: -> dispersion             -0.033018950995 Eh    ::
         :: repulsion energy           0.698581484267 Eh    ::
         :: add. restraining           0.000000000000 Eh    ::
         :: total charge              -0.000000000000 e     ::
         :::::::::::::::::::::::::::::::::::::::::::::::::::::

      ----------------------------------------------------------- 
     |                   =====================                   |
     |                        A N C O P T                        |
     |                   =====================                   |
     |               Approximate Normal Coordinate               |
     |                Rational Function Optimizer                |
      ----------------------------------------------------------- 
      ----------------------------------------------------------- 
     |                   =====================                   |
     |                        A N C O P T                        |
     |                   =====================                   |
     |               Approximate Normal Coordinate               |
     |                Rational Function Optimizer                |
      ----------------------------------------------------------- 

          ...................................................
          :                      SETUP                      :
          :.................................................:
          :   optimization level            normal          :
          :   max. optcycles                   200          :
          :   ANC micro-cycles                  20          :
          :   degrees of freedom                87          :
          :.................................................:
          :   RF solver                   davidson          :
          :   write xtbopt.log                true          :
          :   linear?                        false          :
          :   energy convergence         0.5000000E-05 Eh   :
          :   grad. convergence          0.1000000E-02 Eh/α :
          :   maxmium RF displ.          1.0000000          :
          :   Hlow (freq-cutoff)         0.1000000E-01      :
          :   Hmax (freq-cutoff)         5.0000000          :
          :   S6 in model hess.         20.0000000          :
          ...................................................

generating ANC from exact Hessian ...
Using Lindh-Hessian (1995)
 Shifting diagonal of input Hessian by    9.5198732584588618E-003
 Lowest  eigenvalues of input Hessian
    0.000000    0.000000    0.000000    0.000000    0.000000    0.000000
    0.010000    0.010226    0.010908    0.011282    0.012082    0.013024
    0.015203    0.016709    0.019816    0.020864    0.025053    0.025216
 Highest eigenvalues
    1.931311    1.989268    2.018903    2.073289    2.120778    2.333108


........................................................................
.............................. CYCLE    1 ..............................
........................................................................

 iter      E             dE          RMSdq      gap      omega  full diag
   1    -58.8455047 -0.588455E+02  0.348E-04    1.86       0.0  T
   2    -58.8455047 -0.558913E-09  0.280E-04    1.86      64.1  T
   3    -58.8455047 -0.340698E-09  0.222E-04    1.86      80.8  T
     SCC iter.                  ...        0 min,  0.004 sec
     gradient                   ...        0 min,  0.004 sec
 * total energy  :   -58.1469881 Eh     change       -0.4195307E-08 Eh
   gradient norm :     0.0819528 Eh/α   predicted     0.0000000E+00 (-100.00%)
   displ. norm   :     0.2017674 α      lambda       -0.9597177E-02
   maximum displ.:     0.0719149 α      in ANC's #17, #29, #39, ...

........................................................................
.............................. CYCLE    2 ..............................
........................................................................

 iter      E             dE          RMSdq      gap      omega  full diag
   1    -58.8829046 -0.588829E+02  0.173E-01    1.91       0.0  T
   2    -58.8829899 -0.852578E-04  0.111E-01    1.91       1.0  T
   3    -58.8829713  0.185250E-04  0.551E-02    1.91       1.0  T
   4    -58.8830194 -0.480296E-04  0.134E-02    1.91       1.3  T
   5    -58.8830225 -0.313911E-05  0.559E-03    1.91       3.2  T
   6    -58.8830227 -0.184856E-06  0.400E-03    1.91       4.5  T
   7    -58.8830228 -0.894230E-07  0.259E-03    1.91       6.9  T
   8    -58.8830229 -0.811196E-07  0.183E-03    1.91       9.8  T
   9    -58.8830229 -0.418255E-07  0.904E-04    1.91      19.9  T
  10    -58.8830229 -0.751484E-08  0.549E-04    1.91      32.7  T
     SCC iter.                  ...        0 min,  0.012 sec
     gradient                   ...        0 min,  0.005 sec
 * total energy  :   -58.1534828 Eh     change       -0.6494654E-02 Eh
   gradient norm :     0.0292586 Eh/α   predicted    -0.4994449E-02 ( -23.10%)
   displ. norm   :     0.1721092 α      lambda       -0.2404568E-02
   maximum displ.:     0.0692633 α      in ANC's #1, #17, #34, ...

........................................................................
.............................. CYCLE    3 ..............................
........................................................................

 iter      E             dE          RMSdq      gap      omega  full diag
   1    -58.8981577 -0.588982E+02  0.117E-01    1.93       0.0  T
   2    -58.8981937 -0.360079E-04  0.722E-02    1.93       1.0  T
   3    -58.8981860  0.774316E-05  0.364E-02    1.93       1.0  T
   4    -58.8982055 -0.195159E-04  0.896E-03    1.93       2.0  T
   5    -58.8982069 -0.144736E-05  0.410E-03    1.93       4.4  T
   6    -58.8982070 -0.970246E-07  0.287E-03    1.93       6.3  T
   7    -58.8982071 -0.435310E-07  0.196E-03    1.93       9.2  T
   8    -58.8982071 -0.467771E-07  0.132E-03    1.93      13.6  T
   9    -58.8982071 -0.214608E-07  0.711E-04    1.93      25.3  T
  10    -58.8982071 -0.474096E-08  0.393E-04    1.93      45.7  T
     SCC iter.                  ...        0 min,  0.013 sec
     gradient                   ...        0 min,  0.004 sec
 * total energy  :   -58.1548339 Eh     change       -0.1351167E-02 Eh
   gradient norm :     0.0080801 Eh/α   predicted    -0.1238024E-02 (  -8.37%)
   displ. norm   :     0.1052194 α      lambda       -0.2735573E-03
   maximum displ.:     0.0766392 α      in ANC's #1, #7, #2, ...

........................................................................
.............................. CYCLE    4 ..............................
........................................................................

 iter      E             dE          RMSdq      gap      omega  full diag
   1    -58.8976748 -0.588977E+02  0.444E-02    1.93       0.0  T
   2    -58.8976768 -0.197160E-05  0.259E-02    1.93       1.0  T
   3    -58.8976755  0.126926E-05  0.846E-03    1.93       2.1  T
   4    -58.8976772 -0.174538E-05  0.234E-03    1.93       7.7  T
   5    -58.8976773 -0.870406E-07  0.135E-03    1.93      13.3  T
   6    -58.8976773 -0.208939E-07  0.801E-04    1.93      22.4  T
   7    -58.8976773 -0.397510E-08  0.545E-04    1.93      33.0  T
     SCC iter.                  ...        0 min,  0.012 sec
     gradient                   ...        0 min,  0.004 sec
 * total energy  :   -58.1550441 Eh     change       -0.2101829E-03 Eh
   gradient norm :     0.0058290 Eh/α   predicted    -0.1382946E-03 ( -34.20%)
   displ. norm   :     0.1769224 α      lambda       -0.2653596E-03
   maximum displ.:     0.1408169 α      in ANC's #1, #7, #2, ...

........................................................................
.............................. CYCLE    5 ..............................
........................................................................

 iter      E             dE          RMSdq      gap      omega  full diag
   1    -58.8957394 -0.588957E+02  0.684E-02    1.94       0.0  T
   2    -58.8957422 -0.274358E-05  0.397E-02    1.93       1.0  T
   3    -58.8957394  0.283206E-05  0.107E-02    1.93       1.7  T
   4    -58.8957431 -0.370093E-05  0.299E-03    1.93       6.0  T
   5    -58.8957432 -0.104506E-06  0.171E-03    1.93      10.5  T
   6    -58.8957432 -0.344272E-07  0.944E-04    1.93      19.0  T
   7    -58.8957432 -0.603910E-08  0.640E-04    1.93      28.1  T
     SCC iter.                  ...        0 min,  0.009 sec
     gradient                   ...        0 min,  0.004 sec
 * total energy  :   -58.1552177 Eh     change       -0.1736055E-03 Eh
   gradient norm :     0.0033042 Eh/α   predicted    -0.1368339E-03 ( -21.18%)
   displ. norm   :     0.1271459 α      lambda       -0.9288177E-04
   maximum displ.:     0.1087210 α      in ANC's #1, #2, #7, ...

........................................................................
.............................. CYCLE    6 ..............................
........................................................................

 iter      E             dE          RMSdq      gap      omega  full diag
   1    -58.8954857 -0.588955E+02  0.444E-02    1.94       0.0  T
   2    -58.8954863 -0.666407E-06  0.259E-02    1.94       1.0  T
   3    -58.8954854  0.870541E-06  0.574E-03    1.94       3.1  T
   4    -58.8954866 -0.113100E-05  0.158E-03    1.94      11.4  T
   5    -58.8954866 -0.205050E-07  0.844E-04    1.94      21.3  T
   6    -58.8954866 -0.881510E-08  0.398E-04    1.94      45.1  T
     SCC iter.                  ...        0 min,  0.008 sec
     gradient                   ...        0 min,  0.004 sec
 * total energy  :   -58.1552936 Eh     change       -0.7590086E-04 Eh
   gradient norm :     0.0030579 Eh/α   predicted    -0.4719319E-04 ( -37.82%)
   displ. norm   :     0.1165544 α      lambda       -0.8512838E-04
   maximum displ.:     0.0979124 α      in ANC's #1, #2, #7, ...

........................................................................
.............................. CYCLE    7 ..............................
........................................................................

 iter      E             dE          RMSdq      gap      omega  full diag
   1    -58.8960324 -0.588960E+02  0.374E-02    1.94       0.0  T
   2    -58.8960327 -0.372046E-06  0.218E-02    1.94       1.0  T
   3    -58.8960323  0.441660E-06  0.447E-03    1.94       4.0  T
   4    -58.8960329 -0.589637E-06  0.114E-03    1.94      15.8  T
   5    -58.8960329 -0.976784E-08  0.575E-04    1.94      31.2  T
   6    -58.8960329 -0.409505E-08  0.166E-04    1.94     107.9  T
     SCC iter.                  ...        0 min,  0.008 sec
     gradient                   ...        0 min,  0.004 sec
 * total energy  :   -58.1553715 Eh     change       -0.7790305E-04 Eh
   gradient norm :     0.0031407 Eh/α   predicted    -0.4314307E-04 ( -44.62%)
   displ. norm   :     0.1553181 α      lambda       -0.1141822E-03
   maximum displ.:     0.1248220 α      in ANC's #1, #2, #3, ...

........................................................................
.............................. CYCLE    8 ..............................
........................................................................

 iter      E             dE          RMSdq      gap      omega  full diag
   1    -58.8968218 -0.588968E+02  0.485E-02    1.94       0.0  T
   2    -58.8968223 -0.439059E-06  0.283E-02    1.94       1.0  T
   3    -58.8968220  0.333236E-06  0.457E-03    1.94       3.9  T
   4    -58.8968225 -0.514254E-06  0.131E-03    1.94      13.7  T
   5    -58.8968225 -0.616084E-08  0.679E-04    1.94      26.5  T
   6    -58.8968225 -0.620227E-08  0.239E-04    1.94      75.1  T
     SCC iter.                  ...        0 min,  0.008 sec
     gradient                   ...        0 min,  0.004 sec
 * total energy  :   -58.1554758 Eh     change       -0.1042855E-03 Eh
   gradient norm :     0.0034372 Eh/α   predicted    -0.5846913E-04 ( -43.93%)
   displ. norm   :     0.2175750 α      lambda       -0.1436862E-03
   maximum displ.:     0.1700635 α      in ANC's #1, #2, #3, ...

........................................................................
.............................. CYCLE    9 ..............................
........................................................................

 iter      E             dE          RMSdq      gap      omega  full diag
   1    -58.8971150 -0.588971E+02  0.670E-02    1.93       0.0  T
   2    -58.8971157 -0.705026E-06  0.391E-02    1.93       1.0  T
   3    -58.8971155  0.182569E-06  0.472E-03    1.93       3.8  T
   4    -58.8971160 -0.486479E-06  0.181E-03    1.93       9.9  T
   5    -58.8971160 -0.667719E-08  0.920E-04    1.93      19.5  T
   6    -58.8971160 -0.142251E-07  0.438E-04    1.93      41.0  T
     SCC iter.                  ...        0 min,  0.007 sec
     gradient                   ...        0 min,  0.004 sec
 * total energy  :   -58.1556077 Eh     change       -0.1318302E-03 Eh
   gradient norm :     0.0034328 Eh/α   predicted    -0.7524453E-04 ( -42.92%)
   displ. norm   :     0.2712148 α      lambda       -0.1624560E-03
   maximum displ.:     0.2081290 α      in ANC's #1, #2, #3, ...

........................................................................
.............................. CYCLE   10 ..............................
........................................................................

 iter      E             dE          RMSdq      gap      omega  full diag
   1    -58.8968455 -0.588968E+02  0.829E-02    1.93       0.0  T
   2    -58.8968466 -0.109576E-05  0.484E-02    1.93       1.0  T
   3    -58.8968466  0.796336E-07  0.495E-03    1.93       3.6  T
   4    -58.8968471 -0.519026E-06  0.229E-03    1.93       7.8  T
   5    -58.8968471 -0.216427E-07  0.124E-03    1.93      14.5  T
   6    -58.8968471 -0.268892E-07  0.624E-04    1.93      28.8  T
   7    -58.8968471 -0.262608E-08  0.433E-04    1.93      41.5  T
     SCC iter.                  ...        0 min,  0.009 sec
     gradient                   ...        0 min,  0.004 sec
 * total energy  :   -58.1557579 Eh     change       -0.1502531E-03 Eh
   gradient norm :     0.0031953 Eh/α   predicted    -0.8721221E-04 ( -41.96%)
   displ. norm   :     0.3149138 α      lambda       -0.1796695E-03
   maximum displ.:     0.2412210 α      in ANC's #1, #2, #3, ...

........................................................................
.............................. CYCLE   11 ..............................
........................................................................

 iter      E             dE          RMSdq      gap      omega  full diag
   1    -58.8962415 -0.588962E+02  0.956E-02    1.92       0.0  T
   2    -58.8962431 -0.159972E-05  0.559E-02    1.92       1.0  T
   3    -58.8962429  0.149492E-06  0.584E-03    1.92       3.1  T
   4    -58.8962437 -0.739902E-06  0.271E-03    1.92       6.6  T
   5    -58.8962437 -0.457237E-07  0.144E-03    1.92      12.5  T
   6    -58.8962437 -0.293838E-07  0.757E-04    1.92      23.7  T
   7    -58.8962437 -0.423876E-08  0.522E-04    1.92      34.4  T
     SCC iter.                  ...        0 min,  0.009 sec
     gradient                   ...        0 min,  0.004 sec
 * total energy  :   -58.1559230 Eh     change       -0.1650711E-03 Eh
   gradient norm :     0.0035420 Eh/α   predicted    -0.9874349E-04 ( -40.18%)
   displ. norm   :     0.3646593 α      lambda       -0.2044079E-03
   maximum displ.:     0.2830240 α      in ANC's #1, #2, #3, ...

........................................................................
.............................. CYCLE   12 ..............................
........................................................................

 iter      E             dE          RMSdq      gap      omega  full diag
   1    -58.8956560 -0.588957E+02  0.110E-01    1.92       0.0  T
   2    -58.8956582 -0.225911E-05  0.641E-02    1.92       1.0  T
   3    -58.8956575  0.691789E-06  0.793E-03    1.92       2.3  T
   4    -58.8956591 -0.153674E-05  0.319E-03    1.92       5.6  T
   5    -58.8956591 -0.639851E-07  0.167E-03    1.92      10.7  T
   6    -58.8956592 -0.285480E-07  0.903E-04    1.92      19.9  T
   7    -58.8956592 -0.634816E-08  0.612E-04    1.92      29.4  T
     SCC iter.                  ...        0 min,  0.009 sec
     gradient                   ...        0 min,  0.004 sec
 * total energy  :   -58.1561071 Eh     change       -0.1841460E-03 Eh
   gradient norm :     0.0044096 Eh/α   predicted    -0.1157986E-03 ( -37.12%)
   displ. norm   :     0.4346320 α      lambda       -0.2411493E-03
   maximum displ.:     0.3475054 α      in ANC's #1, #2, #3, ...

........................................................................
.............................. CYCLE   13 ..............................
........................................................................

 iter      E             dE          RMSdq      gap      omega  full diag
   1    -58.8950666 -0.588951E+02  0.130E-01    1.92       0.0  T
   2    -58.8950700 -0.335795E-05  0.761E-02    1.92       1.0  T
   3    -58.8950685  0.143087E-05  0.104E-02    1.92       1.7  T
   4    -58.8950712 -0.264767E-05  0.378E-03    1.92       4.7  T
   5    -58.8950713 -0.910086E-07  0.194E-03    1.92       9.3  T
   6    -58.8950713 -0.291848E-07  0.105E-03    1.92      17.1  T
   7    -58.8950713 -0.967457E-08  0.691E-04    1.92      26.0  T
   8    -58.8950713 -0.382470E-08  0.486E-04    1.92      37.0  T
     SCC iter.                  ...        0 min,  0.010 sec
     gradient                   ...        0 min,  0.006 sec
 * total energy  :   -58.1563177 Eh     change       -0.2106124E-03 Eh
   gradient norm :     0.0058627 Eh/α   predicted    -0.1433499E-03 ( -31.94%)
   displ. norm   :     0.5459327 α      lambda       -0.2993279E-03
   maximum displ.:     0.4524111 α      in ANC's #1, #3, #2, ...

........................................................................
.............................. CYCLE   14 ..............................
........................................................................

 iter      E             dE          RMSdq      gap      omega  full diag
   1    -58.8946820 -0.588947E+02  0.161E-01    1.92       0.0  T
   2    -58.8946873 -0.524611E-05  0.940E-02    1.92       1.0  T
   3    -58.8946842  0.304259E-05  0.138E-02    1.92       1.3  T
   4    -58.8946892 -0.497034E-05  0.455E-03    1.92       3.9  T
   5    -58.8946893 -0.117431E-06  0.230E-03    1.92       7.8  T
   6    -58.8946894 -0.448157E-07  0.119E-03    1.92      15.1  T
   7    -58.8946894 -0.129750E-07  0.737E-04    1.92      24.4  T
   8    -58.8946894 -0.437094E-08  0.523E-04    1.92      34.4  T
     SCC iter.                  ...        0 min,  0.010 sec
     gradient                   ...        0 min,  0.004 sec
 * total energy  :   -58.1565659 Eh     change       -0.2481743E-03 Eh
   gradient norm :     0.0063239 Eh/α   predicted    -0.1942678E-03 ( -21.72%)
   displ. norm   :     0.5862872 α      lambda       -0.3248994E-03
   maximum displ.:     0.5072841 α      in ANC's #1, #3, #2, ...

........................................................................
.............................. CYCLE   15 ..............................
........................................................................

 iter      E             dE          RMSdq      gap      omega  full diag
   1    -58.8952068 -0.588952E+02  0.174E-01    1.92       0.0  T
   2    -58.8952136 -0.679606E-05  0.102E-01    1.92       1.0  T
   3    -58.8952094  0.411972E-05  0.158E-02    1.92       1.1  T
   4    -58.8952157 -0.629721E-05  0.489E-03    1.92       3.7  T
   5    -58.8952159 -0.186002E-06  0.246E-03    1.92       7.3  T
   6    -58.8952160 -0.337884E-07  0.120E-03    1.92      15.0  T
   7    -58.8952160 -0.164459E-07  0.675E-04    1.92      26.6  T
   8    -58.8952160 -0.318948E-08  0.477E-04    1.92      37.6  T
     SCC iter.                  ...        0 min,  0.010 sec
     gradient                   ...        0 min,  0.004 sec
 * total energy  :   -58.1568241 Eh     change       -0.2582108E-03 Eh
   gradient norm :     0.0076690 Eh/α   predicted    -0.2182832E-03 ( -15.46%)
   displ. norm   :     0.5672345 α      lambda       -0.3292471E-03
   maximum displ.:     0.4978635 α      in ANC's #1, #3, #4, ...

........................................................................
.............................. CYCLE   16 ..............................
........................................................................

 iter      E             dE          RMSdq      gap      omega  full diag
   1    -58.8975441 -0.588975E+02  0.161E-01    1.94       0.0  T
   2    -58.8975539 -0.979060E-05  0.945E-02    1.94       1.0  T
   3    -58.8975473  0.654766E-05  0.175E-02    1.93       1.0  T
   4    -58.8975560 -0.873120E-05  0.518E-03    1.94       3.5  T
   5    -58.8975564 -0.370564E-06  0.263E-03    1.94       6.8  T
   6    -58.8975565 -0.546551E-07  0.134E-03    1.94      13.4  T
   7    -58.8975565 -0.161233E-07  0.656E-04    1.94      27.4  T
   8    -58.8975565 -0.350975E-08  0.459E-04    1.94      39.1  T
     SCC iter.                  ...        0 min,  0.010 sec
     gradient                   ...        0 min,  0.004 sec
 * total energy  :   -58.1570527 Eh     change       -0.2285945E-03 Eh
   gradient norm :     0.0089264 Eh/α   predicted    -0.2175848E-03 (  -4.82%)
   displ. norm   :     0.6553930 α      lambda       -0.3550379E-03
   maximum displ.:     0.5723230 α      in ANC's #1, #3, #2, ...

........................................................................
.............................. CYCLE   17 ..............................
........................................................................

 iter      E             dE          RMSdq      gap      omega  full diag
   1    -58.8935024 -0.588935E+02  0.197E-01    1.93       0.0  T
   2    -58.8935154 -0.129151E-04  0.115E-01    1.93       1.0  T
   3    -58.8935117  0.360534E-05  0.166E-02    1.94       1.1  T
   4    -58.8935179 -0.613814E-05  0.605E-03    1.93       3.0  T
   5    -58.8935184 -0.486200E-06  0.301E-03    1.93       6.0  T
   6    -58.8935184 -0.358381E-07  0.144E-03    1.93      12.5  T
   7    -58.8935184 -0.245999E-07  0.693E-04    1.93      25.9  T
   8    -58.8935184 -0.273491E-08  0.494E-04    1.93      36.4  T
     SCC iter.                  ...        0 min,  0.010 sec
     gradient                   ...        0 min,  0.004 sec
 * total energy  :   -58.1572733 Eh     change       -0.2205754E-03 Eh
   gradient norm :     0.0102906 Eh/α   predicted    -0.2537648E-03 (  15.05%)
   displ. norm   :     0.3792190 α      lambda       -0.6312968E-03
   maximum displ.:     0.3010966 α      in ANC's #1, #54, #10, ...

........................................................................
.............................. CYCLE   18 ..............................
........................................................................

 iter      E             dE          RMSdq      gap      omega  full diag
   1    -58.9085663 -0.589086E+02  0.144E-01    1.93       0.0  T
   2    -58.9085846 -0.182543E-04  0.853E-02    1.94       1.0  T
   3    -58.9085769  0.764636E-05  0.217E-02    1.94       1.0  T
   4    -58.9085874 -0.104303E-04  0.579E-03    1.94       3.1  T
   5    -58.9085880 -0.671953E-06  0.279E-03    1.94       6.4  T
   6    -58.9085881 -0.544528E-07  0.151E-03    1.94      11.9  T
   7    -58.9085881 -0.186427E-07  0.666E-04    1.94      27.0  T
   8    -58.9085881 -0.552379E-08  0.457E-04    1.94      39.3  T
     SCC iter.                  ...        0 min,  0.010 sec
     gradient                   ...        0 min,  0.004 sec
 * total energy  :   -58.1567580 Eh     change        0.5153208E-03 Eh
   gradient norm :     0.0269046 Eh/α   predicted    -0.3610300E-03 (-170.06%)
   displ. norm   :     0.1921759 α      lambda       -0.1494039E-02
   maximum displ.:     0.1031476 α      in ANC's #3, #1, #2, ...

........................................................................
.............................. CYCLE   19 ..............................
........................................................................

 iter      E             dE          RMSdq      gap      omega  full diag
   1    -58.8993600 -0.588994E+02  0.908E-02    1.94       0.0  T
   2    -58.8993753 -0.152858E-04  0.531E-02    1.94       1.0  T
   3    -58.8993737  0.152218E-05  0.157E-02    1.94       1.1  T
   4    -58.8993766 -0.290990E-05  0.405E-03    1.94       4.4  T
   5    -58.8993769 -0.285959E-06  0.204E-03    1.94       8.8  T
   6    -58.8993770 -0.343049E-07  0.118E-03    1.94      15.2  T
   7    -58.8993770 -0.115043E-07  0.502E-04    1.94      35.8  T
   8    -58.8993770 -0.133003E-08  0.372E-04    1.94      48.3  T
     SCC iter.                  ...        0 min,  0.011 sec
     gradient                   ...        0 min,  0.004 sec
 * total energy  :   -58.1575601 Eh     change       -0.8020859E-03 Eh
   gradient norm :     0.0042325 Eh/α   predicted    -0.7746286E-03 (  -3.42%)
   displ. norm   :     0.5665963 α      lambda       -0.2295184E-03
   maximum displ.:     0.5003399 α      in ANC's #1, #3, #4, ...

........................................................................
.............................. CYCLE   20 ..............................
........................................................................

 iter      E             dE          RMSdq      gap      omega  full diag
   1    -58.8932271 -0.588932E+02  0.165E-01    1.94       0.0  T
   2    -58.8932340 -0.695505E-05  0.964E-02    1.94       1.0  T
   3    -58.8932316  0.244998E-05  0.141E-02    1.94       1.3  T
   4    -58.8932361 -0.446224E-05  0.478E-03    1.94       3.8  T
   5    -58.8932362 -0.158698E-06  0.245E-03    1.94       7.3  T
   6    -58.8932362 -0.302923E-07  0.105E-03    1.94      17.1  T
   7    -58.8932363 -0.882257E-08  0.587E-04    1.94      30.6  T
   8    -58.8932363 -0.216173E-08  0.417E-04    1.94      43.1  T
     SCC iter.                  ...        0 min,  0.010 sec
     gradient                   ...        0 min,  0.004 sec
 * total energy  :   -58.1576644 Eh     change       -0.1043158E-03 Eh
   gradient norm :     0.0107132 Eh/α   predicted    -0.1516649E-03 (  45.39%)
   displ. norm   :     0.1358170 α      lambda       -0.1995529E-03
   maximum displ.:     0.1065087 α      in ANC's #1, #5, #54, ...
 * RMSD in coord.:     1.0216897 α      energy gain  -0.1067625E-01 Eh

generating ANC from exact Hessian ...
Using Lindh-Hessian (1995)
 Shifting diagonal of input Hessian by    9.4957934441346724E-003
 Lowest  eigenvalues of input Hessian
    0.000000    0.000000    0.000000    0.000000    0.000000    0.000000
    0.010000    0.010254    0.010930    0.011429    0.012164    0.013520
    0.015416    0.016297    0.019769    0.021980    0.025730    0.027027
 Highest eigenvalues
    1.944948    2.041668    2.090245    2.144774    2.238469    2.432113


........................................................................
.............................. CYCLE   21 ..............................
........................................................................

 iter      E             dE          RMSdq      gap      omega  full diag
   1    -58.8965278 -0.588965E+02  0.432E-02    1.94       0.0  T
   2    -58.8965317 -0.393268E-05  0.253E-02    1.94       1.0  T
   3    -58.8965310  0.740333E-06  0.818E-03    1.94       2.2  T
   4    -58.8965319 -0.919826E-06  0.294E-03    1.94       6.1  T
   5    -58.8965321 -0.245933E-06  0.993E-04    1.94      18.1  T
   6    -58.8965322 -0.735855E-08  0.632E-04    1.94      28.4  T
     SCC iter.                  ...        0 min,  0.008 sec
     gradient                   ...        0 min,  0.004 sec
 * total energy  :   -58.1578096 Eh     change       -0.1452758E-03 Eh
   gradient norm :     0.0067474 Eh/α   predicted     0.0000000E+00 (-100.00%)
   displ. norm   :     0.0689428 α      lambda       -0.1450957E-03
   maximum displ.:     0.0351677 α      in ANC's #4, #5, #6, ...

........................................................................
.............................. CYCLE   22 ..............................
........................................................................

 iter      E             dE          RMSdq      gap      omega  full diag
   1    -58.8990671 -0.588991E+02  0.292E-02    1.94       0.0  T
   2    -58.8990684 -0.124983E-05  0.174E-02    1.94       1.0  T
   3    -58.8990677  0.704365E-06  0.696E-03    1.94       2.6  T
   4    -58.8990686 -0.989867E-06  0.174E-03    1.94      10.3  T
   5    -58.8990687 -0.462737E-07  0.910E-04    1.94      19.7  T
   6    -58.8990687 -0.581571E-08  0.617E-04    1.94      29.1  T
     SCC iter.                  ...        0 min,  0.008 sec
     gradient                   ...        0 min,  0.004 sec
 * total energy  :   -58.1579211 Eh     change       -0.1114923E-03 Eh
   gradient norm :     0.0026792 Eh/α   predicted    -0.7299312E-04 ( -34.53%)
   displ. norm   :     0.1817484 α      lambda       -0.1870071E-03
   maximum displ.:     0.0981711 α      in ANC's #4, #5, #6, ...

........................................................................
.............................. CYCLE   23 ..............................
........................................................................

 iter      E             dE          RMSdq      gap      omega  full diag
   1    -58.9015118 -0.589015E+02  0.630E-02    1.93       0.0  T
   2    -58.9015163 -0.453974E-05  0.377E-02    1.94       1.0  T
   3    -58.9015125  0.385480E-05  0.149E-02    1.94       1.2  T
   4    -58.9015176 -0.509835E-05  0.347E-03    1.94       5.2  T
   5    -58.9015177 -0.160796E-06  0.191E-03    1.94       9.4  T
   6    -58.9015177 -0.235367E-07  0.133E-03    1.94      13.5  T
   7    -58.9015177 -0.130746E-07  0.885E-04    1.94      20.3  T
   8    -58.9015178 -0.775449E-08  0.543E-04    1.94      33.1  T
     SCC iter.                  ...        0 min,  0.010 sec
     gradient                   ...        0 min,  0.004 sec
 * total energy  :   -58.1580643 Eh     change       -0.1431215E-03 Eh
   gradient norm :     0.0037875 Eh/α   predicted    -0.9659833E-04 ( -32.51%)
   displ. norm   :     0.3515678 α      lambda       -0.2548699E-03
   maximum displ.:     0.1908487 α      in ANC's #4, #5, #1, ...

........................................................................
.............................. CYCLE   24 ..............................
........................................................................

 iter      E             dE          RMSdq      gap      omega  full diag
   1    -58.9015784 -0.589016E+02  0.111E-01    1.93       0.0  T
   2    -58.9015891 -0.106657E-04  0.664E-02    1.93       1.0  T
   3    -58.9015778  0.112535E-04  0.245E-02    1.93       1.0  T
   4    -58.9015923 -0.144907E-04  0.555E-03    1.93       3.2  T
   5    -58.9015926 -0.335749E-06  0.309E-03    1.93       5.8  T
   6    -58.9015927 -0.503848E-07  0.214E-03    1.93       8.4  T
   7    -58.9015927 -0.394232E-07  0.140E-03    1.93      12.8  T
   8    -58.9015927 -0.187296E-07  0.843E-04    1.93      21.3  T
   9    -58.9015928 -0.668326E-08  0.456E-04    1.93      39.4  T
     SCC iter.                  ...        0 min,  0.011 sec
     gradient                   ...        0 min,  0.004 sec
 * total energy  :   -58.1582963 Eh     change       -0.2320085E-03 Eh
   gradient norm :     0.0070172 Eh/α   predicted    -0.1431931E-03 ( -38.28%)
   displ. norm   :     0.6268778 α      lambda       -0.4469753E-03
   maximum displ.:     0.3416299 α      in ANC's #4, #5, #1, ...

........................................................................
.............................. CYCLE   25 ..............................
........................................................................

 iter      E             dE          RMSdq      gap      omega  full diag
   1    -58.8958368 -0.588958E+02  0.187E-01    1.92       0.0  T
   2    -58.8958621 -0.252825E-04  0.111E-01    1.93       1.0  T
   3    -58.8958346  0.274353E-04  0.387E-02    1.92       1.0  T
   4    -58.8958698 -0.351653E-04  0.878E-03    1.93       2.0  T
   5    -58.8958706 -0.810446E-06  0.491E-03    1.93       3.7  T
   6    -58.8958707 -0.116714E-06  0.332E-03    1.93       5.4  T
   7    -58.8958708 -0.967001E-07  0.214E-03    1.93       8.4  T
   8    -58.8958709 -0.439481E-07  0.131E-03    1.93      13.7  T
   9    -58.8958709 -0.152715E-07  0.696E-04    1.93      25.8  T
  10    -58.8958709 -0.488820E-08  0.282E-04    1.93      63.6  T
     SCC iter.                  ...        0 min,  0.012 sec
     gradient                   ...        0 min,  0.004 sec
 * total energy  :   -58.1586097 Eh     change       -0.3134157E-03 Eh
   gradient norm :     0.0111699 Eh/α   predicted    -0.3113179E-03 (  -0.67%)
   displ. norm   :     0.2236294 α      lambda       -0.1985145E-03
   maximum displ.:     0.1330524 α      in ANC's #4, #5, #1, ...

........................................................................
.............................. CYCLE   26 ..............................
........................................................................

 iter      E             dE          RMSdq      gap      omega  full diag
   1    -58.8954867 -0.588955E+02  0.623E-02    1.93       0.0  T
   2    -58.8954901 -0.340424E-05  0.370E-02    1.93       1.0  T
   3    -58.8954863  0.380366E-05  0.158E-02    1.93       1.1  T
   4    -58.8954914 -0.507666E-05  0.259E-03    1.93       6.9  T
   5    -58.8954914 -0.606979E-07  0.146E-03    1.93      12.3  T
   6    -58.8954915 -0.112322E-07  0.970E-04    1.93      18.5  T
   7    -58.8954915 -0.800668E-08  0.586E-04    1.93      30.7  T
     SCC iter.                  ...        0 min,  0.009 sec
     gradient                   ...        0 min,  0.004 sec
 * total energy  :   -58.1587792 Eh     change       -0.1695462E-03 Eh
   gradient norm :     0.0094485 Eh/α   predicted    -0.1042337E-03 ( -38.52%)
   displ. norm   :     0.3501705 α      lambda       -0.6471978E-03
   maximum displ.:     0.2235589 α      in ANC's #4, #5, #1, ...

........................................................................
.............................. CYCLE   27 ..............................
........................................................................

 iter      E             dE          RMSdq      gap      omega  full diag
   1    -58.9019011 -0.589019E+02  0.106E-01    1.94       0.0  T
   2    -58.9019183 -0.171696E-04  0.634E-02    1.93       1.0  T
   3    -58.9019083  0.996182E-05  0.322E-02    1.93       1.0  T
   4    -58.9019250 -0.166439E-04  0.473E-03    1.93       3.8  T
   5    -58.9019252 -0.191830E-06  0.274E-03    1.93       6.5  T
   6    -58.9019252 -0.433923E-07  0.195E-03    1.93       9.2  T
   7    -58.9019252 -0.305213E-07  0.107E-03    1.93      16.7  T
   8    -58.9019252 -0.759631E-08  0.707E-04    1.93      25.4  T
   9    -58.9019253 -0.601932E-08  0.319E-04    1.93      56.4  T
     SCC iter.                  ...        0 min,  0.011 sec
     gradient                   ...        0 min,  0.004 sec
 * total energy  :   -58.1591043 Eh     change       -0.3250830E-03 Eh
   gradient norm :     0.0107191 Eh/α   predicted    -0.3632811E-03 (  11.75%)
   displ. norm   :     0.5401331 α      lambda       -0.4379194E-03
   maximum displ.:     0.3396824 α      in ANC's #4, #5, #1, ...

........................................................................
.............................. CYCLE   28 ..............................
........................................................................

 iter      E             dE          RMSdq      gap      omega  full diag
   1    -58.8951160 -0.588951E+02  0.155E-01    1.93       0.0  T
   2    -58.8951318 -0.157853E-04  0.925E-02    1.93       1.0  T
   3    -58.8951133  0.184996E-04  0.343E-02    1.93       1.0  T
   4    -58.8951374 -0.240618E-04  0.574E-03    1.93       3.1  T
   5    -58.8951377 -0.278905E-06  0.317E-03    1.93       5.7  T
   6    -58.8951377 -0.463297E-07  0.198E-03    1.93       9.1  T
   7    -58.8951377 -0.282320E-07  0.122E-03    1.93      14.7  T
   8    -58.8951378 -0.138537E-07  0.815E-04    1.93      22.0  T
   9    -58.8951378 -0.595546E-08  0.473E-04    1.93      38.0  T
     SCC iter.                  ...        0 min,  0.011 sec
     gradient                   ...        0 min,  0.004 sec
 * total energy  :   -58.1593355 Eh     change       -0.2312088E-03 Eh
   gradient norm :     0.0147729 Eh/α   predicted    -0.2828426E-03 (  22.33%)
   displ. norm   :     0.1209385 α      lambda       -0.3037906E-03
   maximum displ.:     0.0663509 α      in ANC's #4, #3, #1, ...

........................................................................
.............................. CYCLE   29 ..............................
........................................................................

 iter      E             dE          RMSdq      gap      omega  full diag
   1    -58.8973640 -0.588974E+02  0.443E-02    1.93       0.0  T
   2    -58.8973657 -0.175466E-05  0.264E-02    1.93       1.0  T
   3    -58.8973646  0.113752E-05  0.856E-03    1.93       2.1  T
   4    -58.8973662 -0.155342E-05  0.179E-03    1.93      10.0  T
   5    -58.8973662 -0.396120E-07  0.940E-04    1.93      19.1  T
   6    -58.8973662 -0.571002E-08  0.625E-04    1.93      28.7  T
     SCC iter.                  ...        0 min,  0.008 sec
     gradient                   ...        0 min,  0.004 sec
 * total energy  :   -58.1595895 Eh     change       -0.2540038E-03 Eh
   gradient norm :     0.0101535 Eh/α   predicted    -0.1541486E-03 ( -39.31%)
   displ. norm   :     0.4878339 α      lambda       -0.6179548E-03
   maximum displ.:     0.3096386 α      in ANC's #4, #1, #2, ...

........................................................................
.............................. CYCLE   30 ..............................
........................................................................

 iter      E             dE          RMSdq      gap      omega  full diag
   1    -58.8990258 -0.588990E+02  0.145E-01    1.94       0.0  T
   2    -58.8990390 -0.131937E-04  0.863E-02    1.94       1.0  T
   3    -58.8990258  0.132027E-04  0.281E-02    1.94       1.0  T
   4    -58.8990427 -0.168649E-04  0.507E-03    1.94       3.5  T
   5    -58.8990429 -0.263274E-06  0.275E-03    1.94       6.5  T
   6    -58.8990430 -0.357017E-07  0.194E-03    1.94       9.3  T
   7    -58.8990430 -0.257968E-07  0.128E-03    1.94      14.1  T
   8    -58.8990430 -0.167131E-07  0.767E-04    1.94      23.4  T
   9    -58.8990430 -0.570629E-08  0.449E-04    1.94      40.0  T
     SCC iter.                  ...        0 min,  0.011 sec
     gradient                   ...        0 min,  0.004 sec
 * total energy  :   -58.1600431 Eh     change       -0.4535344E-03 Eh
   gradient norm :     0.0069335 Eh/α   predicted    -0.3825360E-03 ( -15.65%)
   displ. norm   :     0.4998843 α      lambda       -0.3987032E-03
   maximum displ.:     0.3128408 α      in ANC's #4, #1, #2, ...

........................................................................
.............................. CYCLE   31 ..............................
........................................................................

 iter      E             dE          RMSdq      gap      omega  full diag
   1    -58.8984517 -0.588985E+02  0.132E-01    1.94       0.0  T
   2    -58.8984598 -0.806305E-05  0.784E-02    1.94       1.0  T
   3    -58.8984503  0.950851E-05  0.240E-02    1.94       1.0  T
   4    -58.8984623 -0.120066E-04  0.426E-03    1.94       4.2  T
   5    -58.8984624 -0.150206E-06  0.243E-03    1.94       7.4  T
   6    -58.8984625 -0.214194E-07  0.164E-03    1.94      11.0  T
   7    -58.8984625 -0.190626E-07  0.106E-03    1.94      17.0  T
   8    -58.8984625 -0.107859E-07  0.610E-04    1.94      29.4  T
   9    -58.8984625 -0.287339E-08  0.334E-04    1.94      53.8  T
     SCC iter.                  ...        0 min,  0.011 sec
     gradient                   ...        0 min,  0.004 sec
 * total energy  :   -58.1603642 Eh     change       -0.3211215E-03 Eh
   gradient norm :     0.0074118 Eh/α   predicted    -0.2491677E-03 ( -22.41%)
   displ. norm   :     0.4825125 α      lambda       -0.4880906E-03
   maximum displ.:     0.2562666 α      in ANC's #4, #1, #3, ...

........................................................................
.............................. CYCLE   32 ..............................
........................................................................

 iter      E             dE          RMSdq      gap      omega  full diag
   1    -58.9040845 -0.589041E+02  0.121E-01    1.93       0.0  T
   2    -58.9040913 -0.677024E-05  0.713E-02    1.94       1.0  T
   3    -58.9040868  0.447750E-05  0.176E-02    1.94       1.0  T
   4    -58.9040929 -0.609391E-05  0.466E-03    1.94       3.9  T
   5    -58.9040931 -0.204226E-06  0.278E-03    1.94       6.5  T
   6    -58.9040931 -0.326621E-07  0.192E-03    1.94       9.4  T
   7    -58.9040932 -0.296458E-07  0.123E-03    1.94      14.6  T
   8    -58.9040932 -0.133196E-07  0.738E-04    1.94      24.3  T
   9    -58.9040932 -0.656799E-08  0.321E-04    1.94      56.0  T
     SCC iter.                  ...        0 min,  0.011 sec
     gradient                   ...        0 min,  0.004 sec
 * total energy  :   -58.1606521 Eh     change       -0.2878683E-03 Eh
   gradient norm :     0.0064645 Eh/α   predicted    -0.3008660E-03 (   4.52%)
   displ. norm   :     0.6879784 α      lambda       -0.5188180E-03
   maximum displ.:     0.4103542 α      in ANC's #4, #1, #2, ...

........................................................................
.............................. CYCLE   33 ..............................
........................................................................

 iter      E             dE          RMSdq      gap      omega  full diag
   1    -58.8957496 -0.588957E+02  0.170E-01    1.93       0.0  T
   2    -58.8957595 -0.987311E-05  0.101E-01    1.93       1.0  T
   3    -58.8957502  0.933527E-05  0.246E-02    1.93       1.0  T
   4    -58.8957629 -0.126880E-04  0.585E-03    1.93       3.1  T
   5    -58.8957631 -0.214762E-06  0.365E-03    1.93       4.9  T
   6    -58.8957631 -0.649374E-07  0.213E-03    1.93       8.4  T
   7    -58.8957632 -0.271681E-07  0.141E-03    1.93      12.7  T
   8    -58.8957632 -0.192258E-07  0.921E-04    1.93      19.5  T
   9    -58.8957632 -0.907909E-08  0.402E-04    1.93      44.7  T
     SCC iter.                  ...        0 min,  0.011 sec
     gradient                   ...        0 min,  0.004 sec
 * total energy  :   -58.1608066 Eh     change       -0.1545384E-03 Eh
   gradient norm :     0.0130640 Eh/α   predicted    -0.3821916E-03 ( 147.31%)
   displ. norm   :     0.1150632 α      lambda       -0.3560918E-03
   maximum displ.:     0.0784515 α      in ANC's #4, #5, #1, ...

........................................................................
.............................. CYCLE   34 ..............................
........................................................................

 iter      E             dE          RMSdq      gap      omega  full diag
   1    -58.9020846 -0.589021E+02  0.482E-02    1.93       0.0  T
   2    -58.9020864 -0.177725E-05  0.284E-02    1.93       1.0  T
   3    -58.9020854  0.940267E-06  0.819E-03    1.93       2.2  T
   4    -58.9020868 -0.131153E-05  0.167E-03    1.93      10.8  T
   5    -58.9020868 -0.534847E-07  0.903E-04    1.93      19.9  T
   6    -58.9020868 -0.451011E-08  0.428E-04    1.93      41.9  T
     SCC iter.                  ...        0 min,  0.009 sec
     gradient                   ...        0 min,  0.007 sec
 * total energy  :   -58.1610279 Eh     change       -0.2213086E-03 Eh
   gradient norm :     0.0061311 Eh/α   predicted    -0.1804075E-03 ( -18.48%)
   displ. norm   :     0.2663937 α      lambda       -0.2317343E-03
   maximum displ.:     0.1563495 α      in ANC's #1, #2, #4, ...

........................................................................
.............................. CYCLE   35 ..............................
........................................................................

 iter      E             dE          RMSdq      gap      omega  full diag
   1    -58.9044785 -0.589045E+02  0.552E-02    1.92       0.0  T
   2    -58.9044811 -0.252099E-05  0.329E-02    1.92       1.0  T
   3    -58.9044787  0.239357E-05  0.118E-02    1.92       1.5  T
   4    -58.9044819 -0.321404E-05  0.216E-03    1.92       8.3  T
   5    -58.9044819 -0.520373E-07  0.122E-03    1.92      14.8  T
   6    -58.9044819 -0.103186E-07  0.723E-04    1.92      24.8  T
   7    -58.9044819 -0.292984E-08  0.450E-04    1.92      39.9  T
     SCC iter.                  ...        0 min,  0.012 sec
     gradient                   ...        0 min,  0.004 sec
 * total energy  :   -58.1612066 Eh     change       -0.1787228E-03 Eh
   gradient norm :     0.0045843 Eh/α   predicted    -0.1241265E-03 ( -30.55%)
   displ. norm   :     0.4943384 α      lambda       -0.2988550E-03
   maximum displ.:     0.2995184 α      in ANC's #1, #2, #4, ...

........................................................................
.............................. CYCLE   36 ..............................
........................................................................

 iter      E             dE          RMSdq      gap      omega  full diag
   1    -58.9041227 -0.589041E+02  0.104E-01    1.92       0.0  T
   2    -58.9041278 -0.510885E-05  0.620E-02    1.92       1.0  T
   3    -58.9041233  0.450974E-05  0.154E-02    1.92       1.2  T
   4    -58.9041293 -0.599337E-05  0.386E-03    1.92       4.7  T
   5    -58.9041294 -0.135787E-06  0.226E-03    1.92       8.0  T
   6    -58.9041294 -0.243546E-07  0.144E-03    1.92      12.5  T
   7    -58.9041294 -0.183199E-07  0.903E-04    1.92      19.9  T
   8    -58.9041294 -0.658450E-08  0.604E-04    1.92      29.7  T
     SCC iter.                  ...        0 min,  0.010 sec
     gradient                   ...        0 min,  0.004 sec
 * total energy  :   -58.1614175 Eh     change       -0.2108965E-03 Eh
   gradient norm :     0.0056336 Eh/α   predicted    -0.1859441E-03 ( -11.83%)
   displ. norm   :     0.4095242 α      lambda       -0.2360803E-03
   maximum displ.:     0.2559847 α      in ANC's #1, #2, #4, ...

........................................................................
.............................. CYCLE   37 ..............................
........................................................................

 iter      E             dE          RMSdq      gap      omega  full diag
   1    -58.9022014 -0.589022E+02  0.924E-02    1.92       0.0  T
   2    -58.9022052 -0.386675E-05  0.550E-02    1.92       1.0  T
   3    -58.9022022  0.302856E-05  0.124E-02    1.92       1.4  T
   4    -58.9022062 -0.395349E-05  0.318E-03    1.92       5.6  T
   5    -58.9022063 -0.129070E-06  0.176E-03    1.92      10.2  T
   6    -58.9022063 -0.223269E-07  0.107E-03    1.92      16.7  T
   7    -58.9022063 -0.906627E-08  0.672E-04    1.92      26.7  T
   8    -58.9022063 -0.415205E-08  0.455E-04    1.92      39.5  T
     SCC iter.                  ...        0 min,  0.010 sec
     gradient                   ...        0 min,  0.004 sec
 * total energy  :   -58.1615601 Eh     change       -0.1426035E-03 Eh
   gradient norm :     0.0081337 Eh/α   predicted    -0.1378381E-03 (  -3.34%)
   displ. norm   :     0.2089979 α      lambda       -0.2076269E-03
   maximum displ.:     0.1356632 α      in ANC's #1, #2, #6, ...

........................................................................
.............................. CYCLE   38 ..............................
........................................................................

 iter      E             dE          RMSdq      gap      omega  full diag
   1    -58.9039142 -0.589039E+02  0.521E-02    1.93       0.0  T
   2    -58.9039162 -0.199061E-05  0.309E-02    1.93       1.0  T
   3    -58.9039146  0.150513E-05  0.827E-03    1.93       2.2  T
   4    -58.9039165 -0.185590E-05  0.208E-03    1.93       8.6  T
   5    -58.9039166 -0.103566E-06  0.919E-04    1.93      19.5  T
   6    -58.9039166 -0.987215E-08  0.479E-04    1.93      37.5  T
     SCC iter.                  ...        0 min,  0.008 sec
     gradient                   ...        0 min,  0.004 sec
 * total energy  :   -58.1617095 Eh     change       -0.1493508E-03 Eh
   gradient norm :     0.0075071 Eh/α   predicted    -0.1083482E-03 ( -27.45%)
   displ. norm   :     0.3948434 α      lambda       -0.2355041E-03
   maximum displ.:     0.2790793 α      in ANC's #1, #2, #53, ...

........................................................................
.............................. CYCLE   39 ..............................
........................................................................

 iter      E             dE          RMSdq      gap      omega  full diag
   1    -58.9028587 -0.589029E+02  0.861E-02    1.92       0.0  T
   2    -58.9028604 -0.162853E-05  0.513E-02    1.92       1.0  T
   3    -58.9028600  0.363825E-06  0.598E-03    1.92       3.0  T
   4    -58.9028608 -0.796111E-06  0.259E-03    1.92       6.9  T
   5    -58.9028609 -0.701727E-07  0.138E-03    1.92      13.0  T
   6    -58.9028609 -0.117802E-07  0.723E-04    1.92      24.8  T
   7    -58.9028609 -0.409872E-08  0.462E-04    1.92      38.9  T
     SCC iter.                  ...        0 min,  0.009 sec
     gradient                   ...        0 min,  0.004 sec
 * total energy  :   -58.1618766 Eh     change       -0.1671376E-03 Eh
   gradient norm :     0.0064977 Eh/α   predicted    -0.1361115E-03 ( -18.56%)
   displ. norm   :     0.3342979 α      lambda       -0.3248019E-03
   maximum displ.:     0.2208982 α      in ANC's #1, #3, #9, ...

........................................................................
.............................. CYCLE   40 ..............................
........................................................................

 iter      E             dE          RMSdq      gap      omega  full diag
   1    -58.9064108 -0.589064E+02  0.858E-02    1.93       0.0  T
   2    -58.9064136 -0.277474E-05  0.505E-02    1.93       1.0  T
   3    -58.9064113  0.224935E-05  0.115E-02    1.93       1.6  T
   4    -58.9064145 -0.312360E-05  0.277E-03    1.92       6.5  T
   5    -58.9064145 -0.636328E-07  0.186E-03    1.92       9.6  T
   6    -58.9064145 -0.233337E-07  0.104E-03    1.93      17.2  T
   7    -58.9064146 -0.758762E-08  0.737E-04    1.92      24.4  T
   8    -58.9064146 -0.467637E-08  0.452E-04    1.92      39.8  T
     SCC iter.                  ...        0 min,  0.010 sec
     gradient                   ...        0 min,  0.004 sec
 * total energy  :   -58.1620677 Eh     change       -0.1911296E-03 Eh
   gradient norm :     0.0060787 Eh/α   predicted    -0.1805513E-03 (  -5.53%)
   displ. norm   :     0.4371148 α      lambda       -0.2198295E-03
   maximum displ.:     0.3239710 α      in ANC's #1, #2, #53, ...

........................................................................
.............................. CYCLE   41 ..............................
........................................................................

 iter      E             dE          RMSdq      gap      omega  full diag
   1    -58.9030638 -0.589031E+02  0.989E-02    1.93       0.0  T
   2    -58.9030657 -0.186121E-05  0.587E-02    1.93       1.0  T
   3    -58.9030654  0.283031E-06  0.677E-03    1.92       2.7  T
   4    -58.9030663 -0.922249E-06  0.275E-03    1.92       6.5  T
   5    -58.9030663 -0.136992E-07  0.172E-03    1.92      10.5  T
   6    -58.9030664 -0.406310E-07  0.957E-04    1.92      18.8  T
   7    -58.9030664 -0.642803E-08  0.699E-04    1.92      25.7  T
     SCC iter.                  ...        0 min,  0.009 sec
     gradient                   ...        0 min,  0.004 sec
 * total energy  :   -58.1621884 Eh     change       -0.1206953E-03 Eh
   gradient norm :     0.0086912 Eh/α   predicted    -0.1309200E-03 (   8.47%)
   displ. norm   :     0.2358470 α      lambda       -0.2855709E-03
   maximum displ.:     0.1523051 α      in ANC's #3, #1, #4, ...

........................................................................
.............................. CYCLE   42 ..............................
........................................................................

 iter      E             dE          RMSdq      gap      omega  full diag
   1    -58.9043427 -0.589043E+02  0.735E-02    1.92       0.0  T
   2    -58.9043448 -0.211409E-05  0.434E-02    1.92       1.0  T
   3    -58.9043430  0.178317E-05  0.926E-03    1.92       1.9  T
   4    -58.9043453 -0.233415E-05  0.269E-03    1.92       6.7  T
   5    -58.9043454 -0.799808E-07  0.160E-03    1.92      11.2  T
   6    -58.9043454 -0.156926E-07  0.112E-03    1.92      16.0  T
   7    -58.9043455 -0.121144E-07  0.774E-04    1.92      23.2  T
   8    -58.9043455 -0.540108E-08  0.527E-04    1.92      34.1  T
     SCC iter.                  ...        0 min,  0.010 sec
     gradient                   ...        0 min,  0.004 sec
 * total energy  :   -58.1623761 Eh     change       -0.1876405E-03 Eh
   gradient norm :     0.0075019 Eh/α   predicted    -0.1507300E-03 ( -19.67%)
   displ. norm   :     0.3469855 α      lambda       -0.3171081E-03
   maximum displ.:     0.2288463 α      in ANC's #1, #3, #4, ...
 * RMSD in coord.:     1.1363877 α      energy gain  -0.4711703E-02 Eh

generating ANC from exact Hessian ...
Using Lindh-Hessian (1995)
 Shifting diagonal of input Hessian by    9.5141261611130477E-003
 Lowest  eigenvalues of input Hessian
    0.000000    0.000000    0.000000    0.000000    0.000000    0.000000
    0.010000    0.010442    0.010818    0.011449    0.012409    0.013630
    0.015517    0.016790    0.020737    0.021785    0.025789    0.027528
 Highest eigenvalues
    1.953135    2.049598    2.103077    2.152623    2.237060    2.425062


........................................................................
.............................. CYCLE   43 ..............................
........................................................................

 iter      E             dE          RMSdq      gap      omega  full diag
   1    -58.9044282 -0.589044E+02  0.107E-01    1.92       0.0  T
   2    -58.9044298 -0.161176E-05  0.625E-02    1.92       1.0  T
   3    -58.9044289  0.906522E-06  0.773E-03    1.92       2.3  T
   4    -58.9044304 -0.155109E-05  0.257E-03    1.92       7.0  T
   5    -58.9044305 -0.301318E-07  0.131E-03    1.92      13.7  T
   6    -58.9044305 -0.129707E-07  0.795E-04    1.92      22.6  T
   7    -58.9044305 -0.421067E-08  0.608E-04    1.92      29.5  T
     SCC iter.                  ...        0 min,  0.009 sec
     gradient                   ...        0 min,  0.004 sec
 * total energy  :   -58.1625674 Eh     change       -0.1912922E-03 Eh
   gradient norm :     0.0082023 Eh/α   predicted     0.0000000E+00 (-100.00%)
   displ. norm   :     0.0735422 α      lambda       -0.1477515E-03
   maximum displ.:     0.0435404 α      in ANC's #3, #6, #1, ...

........................................................................
.............................. CYCLE   44 ..............................
........................................................................

 iter      E             dE          RMSdq      gap      omega  full diag
   1    -58.9054152 -0.589054E+02  0.247E-02    1.92       0.0  T
   2    -58.9054157 -0.460329E-06  0.151E-02    1.92       1.2  T
   3    -58.9054145  0.122358E-05  0.643E-03    1.92       2.8  T
   4    -58.9054160 -0.149735E-05  0.143E-03    1.92      12.6  T
   5    -58.9054160 -0.237033E-07  0.937E-04    1.92      19.2  T
   6    -58.9054160 -0.503183E-08  0.689E-04    1.92      26.1  T
     SCC iter.                  ...        0 min,  0.008 sec
     gradient                   ...        0 min,  0.004 sec
 * total energy  :   -58.1626931 Eh     change       -0.1257491E-03 Eh
   gradient norm :     0.0034695 Eh/α   predicted    -0.8128536E-04 ( -35.36%)
   displ. norm   :     0.1561079 α      lambda       -0.1660664E-03
   maximum displ.:     0.0980557 α      in ANC's #3, #6, #1, ...

........................................................................
.............................. CYCLE   45 ..............................
........................................................................

 iter      E             dE          RMSdq      gap      omega  full diag
   1    -58.9058338 -0.589058E+02  0.450E-02    1.92       0.0  T
   2    -58.9058347 -0.900118E-06  0.270E-02    1.92       1.0  T
   3    -58.9058321  0.260048E-05  0.934E-03    1.92       1.9  T
   4    -58.9058352 -0.316426E-05  0.249E-03    1.92       7.2  T
   5    -58.9058353 -0.550701E-07  0.177E-03    1.92      10.1  T
   6    -58.9058353 -0.227429E-07  0.125E-03    1.92      14.4  T
   7    -58.9058353 -0.179570E-07  0.810E-04    1.92      22.2  T
   8    -58.9058353 -0.805578E-08  0.422E-04    1.92      42.6  T
     SCC iter.                  ...        0 min,  0.010 sec
     gradient                   ...        0 min,  0.004 sec
 * total energy  :   -58.1628015 Eh     change       -0.1084323E-03 Eh
   gradient norm :     0.0029589 Eh/α   predicted    -0.8505846E-04 ( -21.56%)
   displ. norm   :     0.1203690 α      lambda       -0.6350171E-04
   maximum displ.:     0.0780248 α      in ANC's #3, #1, #6, ...

........................................................................
.............................. CYCLE   46 ..............................
........................................................................

 iter      E             dE          RMSdq      gap      omega  full diag
   1    -58.9056412 -0.589056E+02  0.338E-02    1.91       0.0  T
   2    -58.9056414 -0.217621E-06  0.199E-02    1.91       1.0  T
   3    -58.9056409  0.489411E-06  0.408E-03    1.91       4.4  T
   4    -58.9056415 -0.598686E-06  0.108E-03    1.91      16.6  T
   5    -58.9056415 -0.108699E-07  0.684E-04    1.91      26.3  T
   6    -58.9056415 -0.396998E-08  0.420E-04    1.91      42.7  T
     SCC iter.                  ...        0 min,  0.007 sec
     gradient                   ...        0 min,  0.004 sec
 * total energy  :   -58.1628540 Eh     change       -0.5242705E-04 Eh
   gradient norm :     0.0035397 Eh/α   predicted    -0.3222050E-04 ( -38.54%)
   displ. norm   :     0.1591860 α      lambda       -0.8021499E-04
   maximum displ.:     0.1008209 α      in ANC's #3, #1, #6, ...

........................................................................
.............................. CYCLE   47 ..............................
........................................................................

 iter      E             dE          RMSdq      gap      omega  full diag
   1    -58.9052905 -0.589053E+02  0.451E-02    1.91       0.0  T
   2    -58.9052907 -0.247945E-06  0.265E-02    1.91       1.0  T
   3    -58.9052906  0.182890E-06  0.307E-03    1.91       5.8  T
   4    -58.9052908 -0.278391E-06  0.104E-03    1.91      17.3  T
   5    -58.9052908 -0.663519E-08  0.516E-04    1.91      34.8  T
   6    -58.9052908 -0.387996E-08  0.215E-04    1.91      83.5  T
     SCC iter.                  ...        0 min,  0.008 sec
     gradient                   ...        0 min,  0.004 sec
 * total energy  :   -58.1629201 Eh     change       -0.6617015E-04 Eh
   gradient norm :     0.0025877 Eh/α   predicted    -0.4112417E-04 ( -37.85%)
   displ. norm   :     0.1947701 α      lambda       -0.8278446E-04
   maximum displ.:     0.1240946 α      in ANC's #3, #1, #5, ...

........................................................................
.............................. CYCLE   48 ..............................
........................................................................

 iter      E             dE          RMSdq      gap      omega  full diag
   1    -58.9049380 -0.589049E+02  0.556E-02    1.91       0.0  T
   2    -58.9049383 -0.333926E-06  0.326E-02    1.91       1.0  T
   3    -58.9049382  0.961394E-07  0.315E-03    1.91       5.7  T
   4    -58.9049385 -0.230885E-06  0.123E-03    1.91      14.6  T
   5    -58.9049385 -0.554981E-08  0.526E-04    1.91      34.2  T
   6    -58.9049385 -0.362665E-08  0.276E-04    1.91      65.1  T
     SCC iter.                  ...        0 min,  0.007 sec
     gradient                   ...        0 min,  0.004 sec
 * total energy  :   -58.1629856 Eh     change       -0.6549262E-04 Eh
   gradient norm :     0.0023749 Eh/α   predicted    -0.4296332E-04 ( -34.40%)
   displ. norm   :     0.1963422 α      lambda       -0.7067025E-04
   maximum displ.:     0.1260970 α      in ANC's #3, #1, #5, ...

........................................................................
.............................. CYCLE   49 ..............................
........................................................................

 iter      E             dE          RMSdq      gap      omega  full diag
   1    -58.9048032 -0.589048E+02  0.559E-02    1.91       0.0  T
   2    -58.9048036 -0.399315E-06  0.327E-02    1.91       1.0  T
   3    -58.9048034  0.159413E-06  0.373E-03    1.91       4.8  T
   4    -58.9048038 -0.333094E-06  0.143E-03    1.91      12.5  T
   5    -58.9048038 -0.604539E-08  0.746E-04    1.91      24.1  T
   6    -58.9048038 -0.686679E-08  0.467E-04    1.91      38.4  T
     SCC iter.                  ...        0 min,  0.007 sec
     gradient                   ...        0 min,  0.004 sec
 * total energy  :   -58.1630433 Eh     change       -0.5767172E-04 Eh
   gradient norm :     0.0028209 Eh/α   predicted    -0.3669729E-04 ( -36.37%)
   displ. norm   :     0.2279603 α      lambda       -0.7845151E-04
   maximum displ.:     0.1461434 α      in ANC's #3, #1, #5, ...

........................................................................
.............................. CYCLE   50 ..............................
........................................................................

 iter      E             dE          RMSdq      gap      omega  full diag
   1    -58.9048981 -0.589049E+02  0.660E-02    1.91       0.0  T
   2    -58.9048988 -0.641786E-06  0.385E-02    1.91       1.0  T
   3    -58.9048984  0.382149E-06  0.503E-03    1.91       3.6  T
   4    -58.9048990 -0.664252E-06  0.179E-03    1.91      10.0  T
   5    -58.9048990 -0.946574E-08  0.102E-03    1.91      17.6  T
   6    -58.9048991 -0.136350E-07  0.597E-04    1.91      30.1  T
   7    -58.9048991 -0.220948E-08  0.469E-04    1.91      38.3  T
     SCC iter.                  ...        0 min,  0.009 sec
     gradient                   ...        0 min,  0.004 sec
 * total energy  :   -58.1631073 Eh     change       -0.6403038E-04 Eh
   gradient norm :     0.0028932 Eh/α   predicted    -0.4126442E-04 ( -35.55%)
   displ. norm   :     0.2732283 α      lambda       -0.8386983E-04
   maximum displ.:     0.1794487 α      in ANC's #1, #3, #5, ...

........................................................................
.............................. CYCLE   51 ..............................
........................................................................

 iter      E             dE          RMSdq      gap      omega  full diag
   1    -58.9048581 -0.589049E+02  0.798E-02    1.91       0.0  T
   2    -58.9048590 -0.961094E-06  0.464E-02    1.91       1.0  T
   3    -58.9048584  0.638269E-06  0.616E-03    1.91       2.9  T
   4    -58.9048594 -0.105199E-05  0.207E-03    1.91       8.7  T
   5    -58.9048594 -0.135942E-07  0.105E-03    1.91      17.2  T
   6    -58.9048595 -0.167813E-07  0.534E-04    1.91      33.6  T
   7    -58.9048595 -0.175717E-08  0.416E-04    1.91      43.2  T
     SCC iter.                  ...        0 min,  0.009 sec
     gradient                   ...        0 min,  0.004 sec
 * total energy  :   -58.1631732 Eh     change       -0.6581064E-04 Eh
   gradient norm :     0.0025990 Eh/α   predicted    -0.4506616E-04 ( -31.52%)
   displ. norm   :     0.2528310 α      lambda       -0.6639041E-04
   maximum displ.:     0.1724099 α      in ANC's #1, #3, #5, ...

........................................................................
.............................. CYCLE   52 ..............................
........................................................................

 iter      E             dE          RMSdq      gap      omega  full diag
   1    -58.9051173 -0.589051E+02  0.754E-02    1.91       0.0  T
   2    -58.9051181 -0.814828E-06  0.438E-02    1.91       1.0  T
   3    -58.9051175  0.584114E-06  0.558E-03    1.91       3.2  T
   4    -58.9051185 -0.932216E-06  0.189E-03    1.91       9.5  T
   5    -58.9051185 -0.169829E-07  0.804E-04    1.91      22.3  T
   6    -58.9051185 -0.915927E-08  0.406E-04    1.91      44.2  T
     SCC iter.                  ...        0 min,  0.008 sec
     gradient                   ...        0 min,  0.004 sec
 * total energy  :   -58.1632243 Eh     change       -0.5112925E-04 Eh
   gradient norm :     0.0022618 Eh/α   predicted    -0.3531750E-04 ( -30.93%)
   displ. norm   :     0.2048755 α      lambda       -0.4418389E-04
   maximum displ.:     0.1468712 α      in ANC's #1, #3, #5, ...

........................................................................
.............................. CYCLE   53 ..............................
........................................................................

 iter      E             dE          RMSdq      gap      omega  full diag
   1    -58.9053340 -0.589053E+02  0.617E-02    1.91       0.0  T
   2    -58.9053346 -0.525550E-06  0.359E-02    1.91       1.0  T
   3    -58.9053340  0.524485E-06  0.476E-03    1.91       3.8  T
   4    -58.9053348 -0.759108E-06  0.153E-03    1.91      11.8  T
   5    -58.9053348 -0.135607E-07  0.516E-04    1.91      34.8  T
   6    -58.9053348 -0.312681E-08  0.256E-04    1.91      70.1  T
     SCC iter.                  ...        0 min,  0.008 sec
     gradient                   ...        0 min,  0.004 sec
 * total energy  :   -58.1632590 Eh     change       -0.3472250E-04 Eh
   gradient norm :     0.0018851 Eh/α   predicted    -0.2302378E-04 ( -33.69%)
   displ. norm   :     0.2069531 α      lambda       -0.2865977E-04
   maximum displ.:     0.1601421 α      in ANC's #1, #3, #6, ...

........................................................................
.............................. CYCLE   54 ..............................
........................................................................

 iter      E             dE          RMSdq      gap      omega  full diag
   1    -58.9061251 -0.589061E+02  0.646E-02    1.91       0.0  T
   2    -58.9061257 -0.561341E-06  0.377E-02    1.91       1.0  T
   3    -58.9061250  0.696081E-06  0.521E-03    1.91       3.4  T
   4    -58.9061259 -0.943497E-06  0.157E-03    1.91      11.4  T
   5    -58.9061259 -0.164291E-07  0.687E-04    1.91      26.1  T
   6    -58.9061259 -0.608620E-08  0.278E-04    1.91      64.6  T
     SCC iter.                  ...        0 min,  0.008 sec
     gradient                   ...        0 min,  0.008 sec
 * total energy  :   -58.1632885 Eh     change       -0.2947050E-04 Eh
   gradient norm :     0.0014851 Eh/α   predicted    -0.1460540E-04 ( -50.44%)
   displ. norm   :     0.1195107 α      lambda       -0.1415764E-04
   maximum displ.:     0.0991859 α      in ANC's #1, #3, #5, ...

........................................................................
.............................. CYCLE   55 ..............................
........................................................................

 iter      E             dE          RMSdq      gap      omega  full diag
   1    -58.9051362 -0.589051E+02  0.375E-02    1.91       0.0  T
   2    -58.9051364 -0.197818E-06  0.219E-02    1.91       1.0  T
   3    -58.9051361  0.254010E-06  0.327E-03    1.91       5.5  T
   4    -58.9051365 -0.338996E-06  0.961E-04    1.91      18.7  T
   5    -58.9051365 -0.553982E-08  0.430E-04    1.91      41.8  T
     SCC iter.                  ...        0 min,  0.007 sec
     gradient                   ...        0 min,  0.004 sec
 * total energy  :   -58.1633016 Eh     change       -0.1312999E-04 Eh
   gradient norm :     0.0013357 Eh/α   predicted    -0.7125078E-05 ( -45.73%)
   displ. norm   :     0.0543121 α      lambda       -0.1224580E-04
   maximum displ.:     0.0376151 α      in ANC's #1, #4, #3, ...

........................................................................
.............................. CYCLE   56 ..............................
........................................................................

 iter      E             dE          RMSdq      gap      omega  full diag
   1    -58.9061366 -0.589061E+02  0.157E-02    1.91       0.0  T
   2    -58.9061367 -0.560791E-07  0.924E-03    1.91       1.9  T
   3    -58.9061367  0.226613E-07  0.135E-03    1.91      13.3  T
   4    -58.9061367 -0.412481E-07  0.469E-04    1.91      38.3  T
   5    -58.9061367 -0.114606E-08  0.274E-04    1.91      65.4  T
     SCC iter.                  ...        0 min,  0.009 sec
     gradient                   ...        0 min,  0.004 sec
 * total energy  :   -58.1633136 Eh     change       -0.1204012E-04 Eh
   gradient norm :     0.0013080 Eh/α   predicted    -0.6131420E-05 ( -49.08%)
   displ. norm   :     0.0661239 α      lambda       -0.1168299E-04
   maximum displ.:     0.0525580 α      in ANC's #1, #3, #4, ...

........................................................................
.............................. CYCLE   57 ..............................
........................................................................

 iter      E             dE          RMSdq      gap      omega  full diag
   1    -58.9063161 -0.589063E+02  0.193E-02    1.91       0.0  T
   2    -58.9063162 -0.680821E-07  0.113E-02    1.91       1.6  T
   3    -58.9063161  0.495094E-07  0.164E-03    1.91      11.0  T
   4    -58.9063162 -0.792784E-07  0.553E-04    1.91      32.5  T
   5    -58.9063162 -0.143069E-08  0.254E-04    1.91      70.7  T
     SCC iter.                  ...        0 min,  0.007 sec
     gradient                   ...        0 min,  0.004 sec
 * total energy  :   -58.1633258 Eh     change       -0.1219070E-04 Eh
   gradient norm :     0.0015971 Eh/α   predicted    -0.5853811E-05 ( -51.98%)
   displ. norm   :     0.0634748 α      lambda       -0.9877916E-05
   maximum displ.:     0.0408154 α      in ANC's #1, #3, #5, ...

........................................................................
.............................. CYCLE   58 ..............................
........................................................................

 iter      E             dE          RMSdq      gap      omega  full diag
   1    -58.9062380 -0.589062E+02  0.154E-02    1.91       0.0  T
   2    -58.9062380 -0.620721E-07  0.900E-03    1.91       2.0  T
   3    -58.9062380  0.455133E-07  0.139E-03    1.91      12.9  T
   4    -58.9062381 -0.678424E-07  0.467E-04    1.91      38.5  T
   5    -58.9062381 -0.179370E-08  0.212E-04    1.91      84.9  T
     SCC iter.                  ...        0 min,  0.007 sec
     gradient                   ...        0 min,  0.004 sec
 * total energy  :   -58.1633387 Eh     change       -0.1286139E-04 Eh
   gradient norm :     0.0012365 Eh/α   predicted    -0.4948951E-05 ( -61.52%)
   displ. norm   :     0.0872663 α      lambda       -0.1213495E-04
   maximum displ.:     0.0548752 α      in ANC's #3, #1, #5, ...

........................................................................
.............................. CYCLE   59 ..............................
........................................................................

 iter      E             dE          RMSdq      gap      omega  full diag
   1    -58.9059430 -0.589059E+02  0.217E-02    1.91       0.0  T
   2    -58.9059431 -0.120866E-06  0.127E-02    1.91       1.4  T
   3    -58.9059430  0.977416E-07  0.202E-03    1.91       8.9  T
   4    -58.9059431 -0.138312E-06  0.655E-04    1.91      27.4  T
   5    -58.9059431 -0.416765E-08  0.279E-04    1.91      64.4  T
     SCC iter.                  ...        0 min,  0.006 sec
     gradient                   ...        0 min,  0.004 sec
 * total energy  :   -58.1633528 Eh     change       -0.1409915E-04 Eh
   gradient norm :     0.0006767 Eh/α   predicted    -0.6090151E-05 ( -56.80%)
   displ. norm   :     0.0794299 α      lambda       -0.7285976E-05
   maximum displ.:     0.0488415 α      in ANC's #1, #3, #5, ...

........................................................................
.............................. CYCLE   60 ..............................
........................................................................

 iter      E             dE          RMSdq      gap      omega  full diag
   1    -58.9057131 -0.589057E+02  0.199E-02    1.91       0.0  T
   2    -58.9057131 -0.685022E-07  0.117E-02    1.91       1.5  T
   3    -58.9057131  0.783153E-07  0.185E-03    1.91       9.7  T
   4    -58.9057132 -0.106314E-06  0.528E-04    1.91      34.0  T
   5    -58.9057132 -0.143667E-08  0.257E-04    1.91      69.8  T
     SCC iter.                  ...        0 min,  0.006 sec
     gradient                   ...        0 min,  0.004 sec
 * total energy  :   -58.1633609 Eh     change       -0.8067384E-05 Eh
   gradient norm :     0.0006501 Eh/α   predicted    -0.3655569E-05 ( -54.69%)
   displ. norm   :     0.0534448 α      lambda       -0.4326294E-05
   maximum displ.:     0.0380376 α      in ANC's #1, #3, #5, ...

........................................................................
.............................. CYCLE   61 ..............................
........................................................................

 iter      E             dE          RMSdq      gap      omega  full diag
   1    -58.9056876 -0.589057E+02  0.127E-02    1.91       0.0  T
   2    -58.9056877 -0.386014E-07  0.741E-03    1.91       2.4  T
   3    -58.9056876  0.320518E-07  0.126E-03    1.91      14.3  T
   4    -58.9056877 -0.481401E-07  0.403E-04    1.91      44.6  T
   5    -58.9056877 -0.781846E-09  0.232E-04    1.91      77.5  T
     SCC iter.                  ...        0 min,  0.006 sec
     gradient                   ...        0 min,  0.004 sec
 * total energy  :   -58.1633659 Eh     change       -0.4991924E-05 Eh
   gradient norm :     0.0006497 Eh/α   predicted    -0.2168004E-05 ( -56.57%)
   displ. norm   :     0.0471202 α      lambda       -0.4301519E-05
   maximum displ.:     0.0378496 α      in ANC's #1, #2, #3, ...

   *** GEOMETRY OPTIMIZATION CONVERGED AFTER 61 ITERATIONS ***

------------------------------------------------------------------------
 total energy gain   :        -0.0163777 Eh      -10.2772 kcal/mol
 total RMSD          :         2.2273429 a0        1.1787 Å
 total power (kW/mol):        -0.7049137 (step)  -45.6687 (real)
------------------------------------------------------------------------

 ANCopt (total)                0 d,  0 h,  0 min,  0.942 sec
 optimizer setup                ...        0 min,  0.000 sec (  0.012%)
 model hessian                  ...        0 min,  0.015 sec (  1.610%)
 ANC generation                 ...        0 min,  0.002 sec (  0.178%)
 coordinate transformation      ...        0 min,  0.001 sec (  0.074%)
 single point calculation       ...        0 min,  0.905 sec ( 96.130%)
 optimization log               ...        0 min,  0.010 sec (  1.043%)
 hessian update                 ...        0 min,  0.001 sec (  0.126%)
 rational function              ...        0 min,  0.005 sec (  0.574%)

================
 final structure:
================
31
 xtb: 6.7.1 (edcfbbe)
C           -0.21519726895005       -0.28662893699773        0.45032121788166
C           -0.45071279701975       -1.63588414989079        0.14679793912411
C            0.59532130793784       -2.48923665807529       -0.15347010889539
C            1.89341374668621       -2.01659374481963       -0.15042609017159
C            2.15252547609550       -0.68617560141515        0.16940191614497
C            1.09399970329516        0.17274634734472        0.46405691384884
C            3.53887193618734       -0.21325983721835        0.18211880926628
C            3.96367933522209        0.87702183125279        0.95155281552867
C            5.30834258164532        1.21502491208422        0.87183785539007
N            6.16114230838506        0.54467074934926        0.10082492149040
C            5.66529067513454       -0.47519811832132       -0.56966615071347
N            4.41391990716279       -0.88768653017247       -0.56557172648815
C            5.88160814358947        2.35421516633375        1.65419561857642
O            7.00453369055705        2.76234196737600        1.56378954850972
O            4.98101307852537        2.89283047271974        2.49433527678826
Cl          -2.07306661057381       -2.21033341970708        0.14207582660850
O           -1.30603417111479        0.47604721248196        0.71252238673412
C           -1.12277661390239        1.83350471608479        0.98619506851617
C           -0.84886778150794        2.78386170336619       -0.14408289884151
C           -2.20074054226014        2.75133357054846        0.50601303439271
H            0.38457330762471       -3.51959862082398       -0.39115194213770
H            2.71956360680746       -2.66604711768452       -0.38869120342448
H            1.28530782715730        1.21358906557440        0.66988456249153
H            3.29731939595427        1.42089101804068        1.59869364154723
H            6.35682332726264       -1.03066798419256       -1.18977252891379
H            5.39018529232773        3.62058217283451        2.98948046799357
H           -0.66073846522071        2.02277228921012        1.95245796081151
H           -0.20192831369646        3.62776332181519        0.04082392247080
H           -0.75762312014742        2.36445660664688       -1.13450800823320
H           -3.01073071226142        2.30082368849813       -0.04535884581050
H           -2.49645825089887        3.56994390776171        1.14263979951274

 Bond Distances (Angstroems)
 ---------------------------
C1-C2=1.4029         C1-C6=1.3875         C1-O17=1.3566        C2-C1=1.4029         C2-C3=1.3830         C2-Cl16=1.7211       
C3-C2=1.3830         C3-C4=1.3815         C3-H21=1.0782        C4-C3=1.3815         C4-C5=1.3926         C4-H22=1.0775        
C5-C4=1.3926         C5-C6=1.3946         C5-C7=1.4648         C6-C1=1.3875         C6-C5=1.3946         C6-H23=1.0781        
C7-C5=1.4648         C7-C8=1.4004         C7-N12=1.3340        C8-C7=1.4004         C8-C9=1.3888         C8-H24=1.0764        
C9-C8=1.3888         C9-N10=1.3308        C9-C13=1.4962        N10-C9=1.3308        N10-C11=1.3174       C11-N10=1.3174       
C11-N12=1.3176       C11-H25=1.0823       N12-C7=1.3340        N12-C11=1.3176       C13-C9=1.4962        C13-O14=1.1982       
C13-O15=1.3443       O14-C13=1.1982       O15-C13=1.3443       O15-H26=0.9707       Cl16-C2=1.7211       O17-C1=1.3566        
O17-C18=1.3968       C18-O17=1.3968       C18-C19=1.5019       C18-C20=1.4950       C18-H27=1.0876       C19-C18=1.5019       
C19-C20=1.5004       C19-H28=1.0793       C19-H29=1.0794       C20-C18=1.4950       C20-C19=1.5004       C20-H30=1.0784       
C20-H31=1.0784       H21-C3=1.0782        H22-C4=1.0775        H23-C6=1.0781        H24-C8=1.0764        H25-C11=1.0823       
H26-O15=0.9707       H27-C18=1.0876       H28-C19=1.0793       H29-C19=1.0794       H30-C20=1.0784       H31-C20=1.0784       
 C  H  Rav=1.0796 sigma=0.0031  Rmin=1.0764  Rmax=1.0876    10
 C  C  Rav=1.4300 sigma=0.0498  Rmin=1.3815  Rmax=1.5019    13
 N  C  Rav=1.3250 sigma=0.0075  Rmin=1.3174  Rmax=1.3340     4
 O  H  Rav=0.9707 sigma=0.0000  Rmin=0.9707  Rmax=0.9707     1
 O  C  Rav=1.3240 sigma=0.0752  Rmin=1.1982  Rmax=1.3968     4
 Cl C  Rav=1.7211 sigma=0.0000  Rmin=1.7211  Rmax=1.7211     1

 selected bond angles (degree)
 --------------------
C6-C1-C2=118.62                O17-C1-C2=116.59               O17-C1-C6=124.80               C3-C2-C1=120.89                
Cl16-C2-C1=118.68              Cl16-C2-C3=120.43              C4-C3-C2=119.94                H21-C3-C2=119.32               
H21-C3-C4=120.74               C5-C4-C3=120.14                H22-C4-C3=120.91               H22-C4-C5=118.94               
C6-C5-C4=119.71                C7-C5-C4=119.11                C7-C5-C6=121.18                C5-C6-C1=120.67                
H23-C6-C1=119.27               H23-C6-C5=120.02               C8-C7-C5=122.90                N12-C7-C5=116.92               
N12-C7-C8=120.17               C9-C8-C7=116.85                H24-C8-C7=122.41               H24-C8-C9=120.73               
N10-C9-C8=122.08               C13-C9-C8=121.75               C13-C9-N10=116.16              C11-N10-C9=116.33              

 selected dihedral angles (degree)
 ---------------------------------
C3-C2-C1-C6=359.01            C3-C2-C1-O17=179.07           Cl16-C2-C1-C6=179.50          Cl16-C2-C1-O17=359.57         
C4-C3-C2-C1=  0.32            C4-C3-C2-Cl16=179.82          H21-C3-C2-C1=180.51           H21-C3-C2-Cl16=  0.00         
C5-C4-C3-C2=  0.74            C5-C4-C3-H21=180.54           H22-C4-C3-C2=180.43           H22-C4-C3-H21=  0.23          
C6-C5-C4-C3=358.90            C6-C5-C4-H22=179.20           C7-C5-C4-C3=179.24            C7-C5-C4-H22=359.54           
C5-C6-C1-C2=  0.62            C5-C6-C1-O17=180.55           H23-C6-C1-C2=178.37           H23-C6-C1-O17=358.30          
C1-C6-C5-C4=  0.42            C1-C6-C5-C7=180.07            H23-C6-C5-C4=182.68           H23-C6-C5-C7=  2.34           
C8-C7-C5-C4=205.50            C8-C7-C5-C6= 25.84            N12-C7-C5-C4= 24.32           N12-C7-C5-C6=204.67           
C9-C8-C7-C5=179.80            C9-C8-C7-N12=  1.01           H24-C8-C7-C5=  1.38           H24-C8-C7-N12=182.60          
N10-C9-C8-C7=  0.22           N10-C9-C8-H24=178.67          C13-C9-C8-C7=180.42           C13-C9-C8-H24=358.87          
C11-N10-C9-C8=358.93          C11-N10-C9-C13=178.73         
           -------------------------------------------------
          |                Final Singlepoint                |
           -------------------------------------------------

          ...................................................
          :                      SETUP                      :
          :.................................................:
          :  # basis functions                  97          :
          :  # atomic orbitals                  96          :
          :  # shells                           52          :
          :  # electrons                       102          :
          :  max. iterations                   250          :
          :  Hamiltonian                  GFN2-xTB          :
          :  restarted?                      false          :
          :  GBSA solvation                  false          :
          :  PC potential                    false          :
          :  electronic temp.          300.0000000     K    :
          :  accuracy                    1.0000000          :
          :  -> integral cutoff          0.2500000E+02      :
          :  -> integral neglect         0.1000000E-07      :
          :  -> SCF convergence          0.1000000E-05 Eh   :
          :  -> wf. convergence          0.1000000E-03 e    :
          :  Broyden damping             0.4000000          :
          :  net charge                          0          :
          :  unpaired electrons                  0          :
          ...................................................

 iter      E             dE          RMSdq      gap      omega  full diag
   1    -58.9056877 -0.589057E+02  0.133E-04    1.91       0.0  T
   2    -58.9056877 -0.874536E-10  0.109E-04    1.91     164.6  T
   3    -58.9056877 -0.519975E-10  0.919E-05    1.91     195.4  T

   *** convergence criteria satisfied after 3 iterations ***

         #    Occupation            Energy/Eh            Energy/eV
      -------------------------------------------------------------
         1        2.0000           -1.0580563             -28.7912
       ...           ...                  ...                  ...
        45        2.0000           -0.4394537             -11.9581
        46        2.0000           -0.4380888             -11.9210
        47        2.0000           -0.4213864             -11.4665
        48        2.0000           -0.4171442             -11.3511
        49        2.0000           -0.4143392             -11.2747
        50        2.0000           -0.3944351             -10.7331
        51        2.0000           -0.3808199             -10.3626 (HOMO)
        52                         -0.3107774              -8.4567 (LUMO)
        53                         -0.2851997              -7.7607
        54                         -0.2432048              -6.6179
        55                         -0.2382364              -6.4827
        56                         -0.2098002              -5.7090
       ...                                ...                  ...
        96                          0.6867699              18.6880
      -------------------------------------------------------------
                  HL-Gap            0.0700424 Eh            1.9060 eV
             Fermi-level           -0.3457987 Eh           -9.4097 eV

 SCC (total)                   0 d,  0 h,  0 min,  0.009 sec
 SCC setup                      ...        0 min,  0.000 sec (  0.770%)
 Dispersion                     ...        0 min,  0.000 sec (  1.483%)
 classical contributions        ...        0 min,  0.000 sec (  0.271%)
 integral evaluation            ...        0 min,  0.001 sec ( 14.204%)
 iterations                     ...        0 min,  0.004 sec ( 40.421%)
 molecular gradient             ...        0 min,  0.004 sec ( 41.707%)
 printout                       ...        0 min,  0.000 sec (  0.981%)

         :::::::::::::::::::::::::::::::::::::::::::::::::::::
         ::                     SUMMARY                     ::
         :::::::::::::::::::::::::::::::::::::::::::::::::::::
         :: total energy             -58.163365854437 Eh    ::
         :: gradient norm              0.000650413577 Eh/a0 ::
         :: HOMO-LUMO gap              1.905951817420 eV    ::
         ::.................................................::
         :: SCC energy               -58.905679931558 Eh    ::
         :: -> isotropic ES            0.077671050263 Eh    ::
         :: -> anisotropic ES          0.005186786948 Eh    ::
         :: -> anisotropic XC          0.025149800996 Eh    ::
         :: -> dispersion             -0.033084708063 Eh    ::
         :: repulsion energy           0.742314077120 Eh    ::
         :: add. restraining           0.000000000000 Eh    ::
         :: total charge              -0.000000000000 e     ::
         :::::::::::::::::::::::::::::::::::::::::::::::::::::

           -------------------------------------------------
          |                Property Printout                |
           -------------------------------------------------

    * Orbital Energies and Occupations

         #    Occupation            Energy/Eh            Energy/eV
      -------------------------------------------------------------
         1        2.0000           -1.0580563             -28.7912
       ...           ...                  ...                  ...
        39        2.0000           -0.4705880             -12.8054
        40        2.0000           -0.4665632             -12.6958
        41        2.0000           -0.4624252             -12.5832
        42        2.0000           -0.4558668             -12.4048
        43        2.0000           -0.4494914             -12.2313
        44        2.0000           -0.4460213             -12.1369
        45        2.0000           -0.4394537             -11.9581
        46        2.0000           -0.4380888             -11.9210
        47        2.0000           -0.4213864             -11.4665
        48        2.0000           -0.4171442             -11.3511
        49        2.0000           -0.4143392             -11.2747
        50        2.0000           -0.3944351             -10.7331
        51        2.0000           -0.3808199             -10.3626 (HOMO)
        52                         -0.3107774              -8.4567 (LUMO)
        53                         -0.2851997              -7.7607
        54                         -0.2432048              -6.6179
        55                         -0.2382364              -6.4827
        56                         -0.2098002              -5.7090
        57                         -0.1421481              -3.8680
        58                         -0.1366484              -3.7184
        59                         -0.1011858              -2.7534
        60                         -0.0791966              -2.1551
        61                          0.0032659               0.0889
        62                          0.0106493               0.2898
       ...                                ...                  ...
        96                          0.6867699              18.6880
      -------------------------------------------------------------
                  HL-Gap            0.0700424 Eh            1.9060 eV
             Fermi-level           -0.3457987 Eh           -9.4097 eV

     #   Z          covCN         q      C6AA      α(0)
     1   6 C        2.904     0.140    24.939     8.188
     2   6 C        2.888     0.078    26.255     8.401
     3   6 C        2.951    -0.039    28.979     8.829
     4   6 C        2.926    -0.034    28.853     8.809
     5   6 C        2.979     0.002    27.970     8.675
     6   6 C        2.922    -0.070    29.745     8.944
     7   6 C        2.977     0.117    25.428     8.271
     8   6 C        2.910    -0.049    29.205     8.861
     9   6 C        2.983     0.086    26.087     8.378
    10   7 N        1.839    -0.217    26.570     7.639
    11   6 C        2.911     0.153    24.690     8.148
    12   7 N        1.842    -0.232    26.934     7.691
    13   6 C        2.696     0.353    21.006     7.501
    14   8 O        0.856    -0.367    21.035     6.149
    15   8 O        1.659    -0.381    20.476     6.109
    16  17 Cl       0.968    -0.143   103.625    15.574
    17   8 O        1.707    -0.249    18.123     5.748
    18   6 C        3.755     0.115    18.758     6.176
    19   6 C        3.805    -0.077    21.967     6.672
    20   6 C        3.806    -0.071    21.858     6.656
    21   1 H        0.926     0.070     2.086     2.258
    22   1 H        0.926     0.074     2.040     2.234
    23   1 H        0.926     0.053     2.280     2.361
    24   1 H        0.926     0.063     2.162     2.299
    25   1 H        0.925     0.060     2.203     2.321
    26   1 H        0.804     0.334     0.626     1.243
    27   1 H        0.925     0.026     2.645     2.543
    28   1 H        0.926     0.042     2.428     2.437
    29   1 H        0.926     0.052     2.292     2.367
    30   1 H        0.926     0.063     2.160     2.298
    31   1 H        0.926     0.048     2.342     2.393

 Mol. C6AA /au·bohr⁶  :      14374.072291
 Mol. C8AA /au·bohr⁸  :     368416.813536
 Mol. α(0) /au        :        186.174360


Wiberg/Mayer (AO) data.
largest (>0.10) Wiberg bond orders for each atom

 ---------------------------------------------------------------------------
     #   Z sym  total        # sym  WBO       # sym  WBO       # sym  WBO
 ---------------------------------------------------------------------------
     1   6 C    3.943 --     6 C    1.388     2 C    1.303    17 O    1.075
     2   6 C    3.913 --     3 C    1.416     1 C    1.303    16 Cl   0.993
     3   6 C    3.985 --     4 C    1.440     2 C    1.416    21 H    0.965
     4   6 C    3.986 --     3 C    1.440     5 C    1.376    22 H    0.963
     5   6 C    3.988 --     4 C    1.376     6 C    1.372     7 C    1.063
     6   6 C    3.985 --     1 C    1.388     5 C    1.372    23 H    0.960
     7   6 C    3.972 --    12 N    1.379     8 C    1.355     5 C    1.063
     8   6 C    3.986 --     9 C    1.419     7 C    1.355    24 H    0.961
                            11 C    0.105
     9   6 C    3.979 --     8 C    1.419    10 N    1.384    13 C    0.970
    10   7 N    3.060 --    11 C    1.434     9 C    1.384
    11   6 C    3.963 --    12 N    1.438    10 N    1.434    25 H    0.954
                             8 C    0.105
    12   7 N    3.065 --    11 C    1.438     7 C    1.379
    13   6 C    3.920 --    14 O    1.784    15 O    1.118     9 C    0.970
    14   8 O    2.075 --    13 C    1.784    15 O    0.180
    15   8 O    2.192 --    13 C    1.118    26 H    0.864    14 O    0.180
    16  17 Cl   1.136 --     2 C    0.993
    17   8 O    2.268 --     1 C    1.075    18 C    0.969
    18   6 C    3.895 --    20 C    0.973    17 O    0.969    27 H    0.961
                            19 C    0.961
    19   6 C    3.939 --    28 H    0.980    20 C    0.979    29 H    0.979
                            18 C    0.961
    20   6 C    3.942 --    31 H    0.980    19 C    0.979    30 H    0.977
                            18 C    0.973
    21   1 H    0.994 --     3 C    0.965
    22   1 H    0.994 --     4 C    0.963
    23   1 H    0.997 --     6 C    0.960
    24   1 H    0.996 --     8 C    0.961
    25   1 H    0.995 --    11 C    0.954
    26   1 H    0.887 --    15 O    0.864
    27   1 H    0.999 --    18 C    0.961
    28   1 H    0.998 --    19 C    0.980
    29   1 H    0.997 --    19 C    0.979
    30   1 H    0.996 --    20 C    0.977
    31   1 H    0.997 --    20 C    0.980
 ---------------------------------------------------------------------------

Topologies differ in total number of bonds
Writing topology from bond orders to xtbtopo.mol

molecular dipole:
                 x           y           z       tot (Debye)
 q only:       -0.779       0.482       0.249
   full:       -1.094       0.890       0.638       3.934
molecular quadrupole (traceless):
                xx          xy          yy          xz          yz          zz
 q only:      -31.251     -14.257      18.144       1.138       6.664      13.107
  q+dip:      -38.286     -10.326      22.114       5.383      10.415      16.171
   full:      -39.984     -11.147      21.283       6.004       7.290      18.701

           -------------------------------------------------
          |                Geometry Summary                 |
           -------------------------------------------------

      molecular mass/u    :      290.7022096
   center of mass at/Å    :        1.9305791       0.2690636       0.4973366
  moments of inertia/u·Å² :        0.9782864E+03   0.3150735E+04   0.3947491E+04
rotational constants/cm⁻¹ :        0.1723180E-01   0.5350381E-02   0.4270468E-02

 * 31 selected distances

     #   Z          #   Z                                           value/Å
     1   6 C        2   6 C                                       1.4028842
     2   6 C        3   6 C                                       1.3829530
     3   6 C        4   6 C                                       1.3814648
     4   6 C        5   6 C                                       1.3926384
     1   6 C        6   6 C                                       1.3875199
     5   6 C        6   6 C                                       1.3946489
     7   6 C        8   6 C                                       1.4004301
     8   6 C        9   6 C                                       1.3887837
     9   6 C       10   7 N                                       1.3308281
    10   7 N       11   6 C                                       1.3174065
     7   6 C       12   7 N                                       1.3340172
    11   6 C       12   7 N                                       1.3176087
    13   6 C       14   8 O                                       1.1982082
    13   6 C       15   8 O                                       1.3442518
     2   6 C       16  17 Cl                                      1.7210598 (max)
     1   6 C       17   8 O                                       1.3565949
    17   8 O       18   6 C                                       1.3968433
    18   6 C       19   6 C                                       1.5019098
    18   6 C       20   6 C                                       1.4949887
    19   6 C       20   6 C                                       1.5004143
     3   6 C       21   1 H                                       1.0782177
     4   6 C       22   1 H                                       1.0775360
     6   6 C       23   1 H                                       1.0781083
     8   6 C       24   1 H                                       1.0763925
    11   6 C       25   1 H                                       1.0822644
    15   8 O       26   1 H                                       0.9706768 (min)
    18   6 C       27   1 H                                       1.0876422
    19   6 C       28   1 H                                       1.0793013
    19   6 C       29   1 H                                       1.0794296
    20   6 C       30   1 H                                       1.0784500
    20   6 C       31   1 H                                       1.0783625

 * 6 distinct bonds (by element types)

   Z      Z             #   av. dist./Å        max./Å        min./Å
   1 H    6 C          10     1.0795705     1.0876422     1.0763925
   6 C    6 C          11     1.4207851     1.5019098     1.3814648
   6 C    7 N           4     1.3249651     1.3340172     1.3174065
   1 H    8 O           1     0.9706768     0.9706768     0.9706768
   6 C    8 O           4     1.3239746     1.3968433     1.1982082
   6 C   17 Cl          1     1.7210598     1.7210598     1.7210598


optimized geometry written to: xtbopt.xyz


           -------------------------------------------------
          | TOTAL ENERGY              -58.163365854437 Eh   |
          | GRADIENT NORM               0.000650413577 Eh/α |
          | HOMO-LUMO GAP               1.905951817420 eV   |
           -------------------------------------------------

------------------------------------------------------------------------
 * finished run on 2024/12/17 at 14:08:18.748     
------------------------------------------------------------------------
 total:
 * wall-time:     0 d,  0 h,  0 min,  0.998 sec
 *  cpu-time:     0 d,  0 h,  0 min,  7.904 sec
 * ratio c/w:     7.916 speedup
 SCF:
 * wall-time:     0 d,  0 h,  0 min,  0.028 sec
 *  cpu-time:     0 d,  0 h,  0 min,  0.218 sec
 * ratio c/w:     7.807 speedup
 ANC optimizer:
 * wall-time:     0 d,  0 h,  0 min,  0.952 sec
 *  cpu-time:     0 d,  0 h,  0 min,  7.554 sec
 * ratio c/w:     7.933 speedup

