      -----------------------------------------------------------      
     |                   =====================                   |     
     |                           x T B                           |     
     |                   =====================                   |     
     |                         S. Grimme                         |     
     |          Mulliken Center for Theoretical Chemistry        |     
     |                    University of Bonn                     |     
      -----------------------------------------------------------      

   * xtb version 6.7.1 (edcfbbe) compiled by 'conda@3ef47c1a292c' on 2024-11-25

   xtb is free software: you can redistribute it and/or modify it under
   the terms of the GNU Lesser General Public License as published by
   the Free Software Foundation, either version 3 of the License, or
   (at your option) any later version.
   
   xtb is distributed in the hope that it will be useful,
   but WITHOUT ANY WARRANTY; without even the implied warranty of
   MERCHANTABILITY or FITNESS FOR A PARTICULAR PURPOSE.  See the
   GNU Lesser General Public License for more details.
   
   Cite this work as:
   * C. Bannwarth, E. Caldeweyher, S. Ehlert, A. Hansen, P. Pracht,
     J. Seibert, S. Spicher, S. Grimme, WIREs Comput. Mol. Sci., 2020, 11,
     e01493. DOI: 10.1002/wcms.1493
   
   for GFN2-xTB:
   * C. Bannwarth, S. Ehlert and S. Grimme., J. Chem. Theory Comput., 2019,
     15, 1652-1671. DOI: 10.1021/acs.jctc.8b01176
   for GFN1-xTB:
   * S. Grimme, C. Bannwarth, P. Shushkov, J. Chem. Theory Comput., 2017,
     13, 1989-2009. DOI: 10.1021/acs.jctc.7b00118
   for GFN0-xTB:
   * P. Pracht, E. Caldeweyher, S. Ehlert, S. Grimme, ChemRxiv, 2019, preprint.
     DOI: 10.26434/chemrxiv.8326202.v1
   for GFN-FF:
   * S. Spicher and S. Grimme, Angew. Chem. Int. Ed., 2020, 59, 15665-15673.
     DOI: 10.1002/anie.202004239
   
   for ALPB and GBSA implicit solvation:
   * S. Ehlert, M. Stahn, S. Spicher, S. Grimme, J. Chem. Theory Comput.,
     2021, 17, 4250-4261. DOI: 10.1021/acs.jctc.1c00471
   
   for ddCOSMO and CPCM-X implicit solvation:
   * M. Stahn, S. Ehlert, S. Grimme, J. Phys. Chem. A,
     2023, XX, XXXX-XXXX. DOI: 10.1021/acs.jpca.3c04382
   
   for DFT-D4:
   * E. Caldeweyher, C. Bannwarth and S. Grimme, J. Chem. Phys., 2017,
     147, 034112. DOI: 10.1063/1.4993215
   * E. Caldeweyher, S. Ehlert, A. Hansen, H. Neugebauer, S. Spicher,
     C. Bannwarth and S. Grimme, J. Chem. Phys., 2019, 150, 154122.
     DOI: 10.1063/1.5090222
   * E. Caldeweyher, J.-M. Mewes, S. Ehlert and S. Grimme, Phys. Chem. Chem. Phys.
     2020, 22, 8499-8512. DOI: 10.1039/D0CP00502A
   
   for sTDA-xTB:
   * S. Grimme and C. Bannwarth, J. Chem. Phys., 2016, 145, 054103.
     DOI: 10.1063/1.4959605
   
   in the mass-spec context:
   * V. Asgeirsson, C. Bauer and S. Grimme, Chem. Sci., 2017, 8, 4879.
     DOI: 10.1039/c7sc00601b
   * J. Koopman and S. Grimme, ACS Omega 2019, 4, 12, 15120-15133.
     DOI: 10.1021/acsomega.9b02011
   
   for metadynamics refer to:
   * S. Grimme, J. Chem. Theory Comput., 2019, 155, 2847-2862
     DOI: 10.1021/acs.jctc.9b00143
   
   for SPH calculations refer to:
   * S. Spicher and S. Grimme, J. Chem. Theory Comput., 2021, 17, 1701-1714
     DOI: 10.1021/acs.jctc.0c01306
   
   for ONIOM refer to:
   * C. Plett, A. Katbashev, S. Ehlert, S. Grimme, M. Bursch,
     Phys. Chem. Chem. Phys., 2023, 25, 17860-17868. DOI: 10.1039/D3CP02178E
   
   for DIPRO refer to:
   * J. Kohn, N. Gildemeister, S. Grimme, D. Fazzi, A. Hansen,
     J. Chem. Phys., 2023, just accepted.
   
   for PTB refer to:
   * S. Grimme, M. Mueller, A. Hansen, J. Chem. Phys., 2023, 158, 124111.
     DOI: 10.1063/5.0137838
   
   with help from (in alphabetical order)
   P. Atkinson, C. Bannwarth, F. Bohle, G. Brandenburg, E. Caldeweyher
   M. Checinski, S. Dohm, S. Ehlert, S. Ehrlich, I. Gerasimov, C. Hölzer
   A. Katbashev, J. Kohn, J. Koopman, C. Lavigne, S. Lehtola, F. März, M. Müller,
   F. Musil, H. Neugebauer, J. Pisarek, C. Plett, P. Pracht, F. Pultar,
   J. Seibert, P. Shushkov, S. Spicher, M. Stahn, M. Steiner, T. Strunk,
   J. Stückrath, T. Rose, and J. Unsleber
   
 * started run on 2024/12/17 at 14:08:05.019     
   ID    Z sym.   atoms
    1    7 N      1, 5
    2    6 C      2-4, 6, 7, 10-15
    3    8 O      8, 9
    4   17 Cl     16, 17
    5    1 H      18-23

           -------------------------------------------------
          |                Calculation Setup                |
           -------------------------------------------------

          program call               : xtb K008.xyz --opt --namespace K008
          calculation namespace      : K008
          coordinate file            : K008.xyz
          omp threads                :                     8


           -------------------------------------------------
          |                 G F N 2 - x T B                 |
           -------------------------------------------------

        Reference                      10.1021/acs.jctc.8b01176
      * Hamiltonian:
        H0-scaling (s, p, d)           1.850000    2.230000    2.230000
        zeta-weighting                 0.500000
      * Dispersion:
        s8                             2.700000
        a1                             0.520000
        a2                             5.000000
        s9                             5.000000
      * Repulsion:
        kExp                           1.500000    1.000000
        rExp                           1.000000
      * Coulomb:
        alpha                          2.000000
        third order                    shell-resolved
        anisotropic                    true
        a3                             3.000000
        a5                             4.000000
        cn-shift                       1.200000
        cn-exp                         4.000000
        max-rad                        5.000000


          ...................................................
          :                      SETUP                      :
          :.................................................:
          :  # basis functions                  86          :
          :  # atomic orbitals                  84          :
          :  # shells                           42          :
          :  # electrons                        86          :
          :  max. iterations                   250          :
          :  Hamiltonian                  GFN2-xTB          :
          :  restarted?                      false          :
          :  GBSA solvation                  false          :
          :  PC potential                    false          :
          :  electronic temp.          300.0000000     K    :
          :  accuracy                    1.0000000          :
          :  -> integral cutoff          0.2500000E+02      :
          :  -> integral neglect         0.1000000E-07      :
          :  -> SCF convergence          0.1000000E-05 Eh   :
          :  -> wf. convergence          0.1000000E-03 e    :
          :  Broyden damping             0.4000000          :
          :  net charge                          0          :
          :  unpaired electrons                  0          :
          ...................................................

 iter      E             dE          RMSdq      gap      omega  full diag
   1    -50.1800937 -0.501801E+02  0.521E+00    2.26       0.0  T
   2    -50.2301607 -0.500670E-01  0.311E+00    2.22       1.0  T
   3    -50.2256247  0.453601E-02  0.147E+00    1.98       1.0  T
   4    -50.2395118 -0.138871E-01  0.356E-01    1.89       1.0  T
   5    -50.2423840 -0.287213E-02  0.120E-01    1.87       1.0  T
   6    -50.2425598 -0.175888E-03  0.573E-02    1.86       1.0  T
   7    -50.2425709 -0.110787E-04  0.361E-02    1.87       1.0  T
   8    -50.2425809 -0.999439E-05  0.246E-02    1.87       1.0  T
   9    -50.2425847 -0.380410E-05  0.163E-02    1.87       1.3  T
  10    -50.2425866 -0.187470E-05  0.844E-03    1.87       2.5  T
  11    -50.2425874 -0.820247E-06  0.356E-03    1.87       5.9  T
  12    -50.2425875 -0.677718E-07  0.161E-03    1.87      13.0  T
  13    -50.2425875 -0.178372E-07  0.731E-04    1.87      28.5  T
  14    -50.2425875 -0.401000E-08  0.415E-04    1.87      50.2  T

   *** convergence criteria satisfied after 14 iterations ***

         #    Occupation            Energy/Eh            Energy/eV
      -------------------------------------------------------------
         1        2.0000           -1.0713848             -29.1539
       ...           ...                  ...                  ...
        37        2.0000           -0.4448069             -12.1038
        38        2.0000           -0.4361026             -11.8670
        39        2.0000           -0.4345336             -11.8243
        40        2.0000           -0.4287886             -11.6679
        41        2.0000           -0.4263269             -11.6009
        42        2.0000           -0.4118023             -11.2057
        43        2.0000           -0.3917186             -10.6592 (HOMO)
        44                         -0.3229984              -8.7892 (LUMO)
        45                         -0.2920764              -7.9478
        46                         -0.2682296              -7.2989
        47                         -0.2588967              -7.0449
        48                         -0.2291538              -6.2356
       ...                                ...                  ...
        84                          0.6293772              17.1262
      -------------------------------------------------------------
                  HL-Gap            0.0687202 Eh            1.8700 eV
             Fermi-level           -0.3573585 Eh           -9.7242 eV

 SCC (total)                   0 d,  0 h,  0 min,  0.022 sec
 SCC setup                      ...        0 min,  0.000 sec (  0.543%)
 Dispersion                     ...        0 min,  0.000 sec (  0.973%)
 classical contributions        ...        0 min,  0.000 sec (  0.244%)
 integral evaluation            ...        0 min,  0.003 sec ( 12.483%)
 iterations                     ...        0 min,  0.015 sec ( 69.704%)
 molecular gradient             ...        0 min,  0.003 sec ( 15.559%)
 printout                       ...        0 min,  0.000 sec (  0.420%)

         :::::::::::::::::::::::::::::::::::::::::::::::::::::
         ::                     SUMMARY                     ::
         :::::::::::::::::::::::::::::::::::::::::::::::::::::
         :: total energy             -49.689247158551 Eh    ::
         :: gradient norm              0.073886265547 Eh/a0 ::
         :: HOMO-LUMO gap              1.869971165644 eV    ::
         ::.................................................::
         :: SCC energy               -50.242682895482 Eh    ::
         :: -> isotropic ES            0.068102880877 Eh    ::
         :: -> anisotropic ES          0.001932505878 Eh    ::
         :: -> anisotropic XC          0.024212987538 Eh    ::
         :: -> dispersion             -0.026772946791 Eh    ::
         :: repulsion energy           0.553435736930 Eh    ::
         :: add. restraining           0.000000000000 Eh    ::
         :: total charge              -0.000000000000 e     ::
         :::::::::::::::::::::::::::::::::::::::::::::::::::::

      ----------------------------------------------------------- 
     |                   =====================                   |
     |                        A N C O P T                        |
     |                   =====================                   |
     |               Approximate Normal Coordinate               |
     |                Rational Function Optimizer                |
      ----------------------------------------------------------- 
      ----------------------------------------------------------- 
     |                   =====================                   |
     |                        A N C O P T                        |
     |                   =====================                   |
     |               Approximate Normal Coordinate               |
     |                Rational Function Optimizer                |
      ----------------------------------------------------------- 

          ...................................................
          :                      SETUP                      :
          :.................................................:
          :   optimization level            normal          :
          :   max. optcycles                   200          :
          :   ANC micro-cycles                  20          :
          :   degrees of freedom                63          :
          :.................................................:
          :   RF solver                   davidson          :
          :   write xtbopt.log                true          :
          :   linear?                        false          :
          :   energy convergence         0.5000000E-05 Eh   :
          :   grad. convergence          0.1000000E-02 Eh/α :
          :   maxmium RF displ.          1.0000000          :
          :   Hlow (freq-cutoff)         0.1000000E-01      :
          :   Hmax (freq-cutoff)         5.0000000          :
          :   S6 in model hess.         20.0000000          :
          ...................................................

generating ANC from exact Hessian ...
Using Lindh-Hessian (1995)
 Shifting diagonal of input Hessian by    8.9382061383439966E-003
 Lowest  eigenvalues of input Hessian
    0.000000    0.000000    0.000000    0.000000    0.000000    0.000000
    0.010000    0.010556    0.011232    0.014853    0.016158    0.020003
    0.020706    0.024094    0.027839    0.030465    0.034325    0.038275
 Highest eigenvalues
    1.896677    1.942136    2.008103    2.071828    2.120432    2.331204


........................................................................
.............................. CYCLE    1 ..............................
........................................................................

 iter      E             dE          RMSdq      gap      omega  full diag
   1    -50.2425875 -0.502426E+02  0.205E-04    1.87       0.0  T
   2    -50.2425875 -0.148830E-09  0.160E-04    1.87     130.7  T
   3    -50.2425875 -0.738680E-10  0.129E-04    1.87     161.1  T
     SCC iter.                  ...        0 min,  0.003 sec
     gradient                   ...        0 min,  0.003 sec
 * total energy  :   -49.6892472 Eh     change       -0.9089050E-09 Eh
   gradient norm :     0.0738846 Eh/α   predicted     0.0000000E+00 (-100.00%)
   displ. norm   :     0.1803284 α      lambda       -0.7311794E-02
   maximum displ.:     0.0892597 α      in ANC's #15, #31, #26, ...

........................................................................
.............................. CYCLE    2 ..............................
........................................................................

 iter      E             dE          RMSdq      gap      omega  full diag
   1    -50.2766441 -0.502766E+02  0.158E-01    1.92       0.0  T
   2    -50.2767156 -0.715637E-04  0.107E-01    1.92       1.0  T
   3    -50.2767163 -0.695029E-06  0.546E-02    1.92       1.0  T
   4    -50.2767423 -0.259955E-04  0.155E-02    1.92       1.3  T
   5    -50.2767449 -0.255936E-05  0.688E-03    1.92       3.0  T
   6    -50.2767451 -0.202753E-06  0.505E-03    1.92       4.1  T
   7    -50.2767452 -0.124224E-06  0.293E-03    1.92       7.1  T
   8    -50.2767453 -0.768972E-07  0.178E-03    1.92      11.7  T
   9    -50.2767453 -0.201096E-07  0.622E-04    1.92      33.5  T
  10    -50.2767453 -0.236963E-08  0.425E-04    1.92      49.1  T
     SCC iter.                  ...        0 min,  0.010 sec
     gradient                   ...        0 min,  0.003 sec
 * total energy  :   -49.6941300 Eh     change       -0.4882819E-02 Eh
   gradient norm :     0.0244687 Eh/α   predicted    -0.3775090E-02 ( -22.69%)
   displ. norm   :     0.1597218 α      lambda       -0.1704991E-02
   maximum displ.:     0.0668293 α      in ANC's #1, #15, #26, ...

........................................................................
.............................. CYCLE    3 ..............................
........................................................................

 iter      E             dE          RMSdq      gap      omega  full diag
   1    -50.2891765 -0.502892E+02  0.106E-01    1.94       0.0  T
   2    -50.2891950 -0.184945E-04  0.684E-02    1.94       1.0  T
   3    -50.2891868  0.822257E-05  0.351E-02    1.93       1.0  T
   4    -50.2892043 -0.174981E-04  0.807E-03    1.94       2.6  T
   5    -50.2892048 -0.531266E-06  0.454E-03    1.94       4.6  T
   6    -50.2892049 -0.648207E-07  0.319E-03    1.94       6.5  T
   7    -50.2892049 -0.531536E-07  0.174E-03    1.94      12.0  T
   8    -50.2892050 -0.259076E-07  0.108E-03    1.94      19.3  T
   9    -50.2892050 -0.733105E-08  0.368E-04    1.94      56.7  T
  10    -50.2892050 -0.101541E-08  0.250E-04    1.94      83.3  T
     SCC iter.                  ...        0 min,  0.010 sec
     gradient                   ...        0 min,  0.003 sec
 * total energy  :   -49.6951385 Eh     change       -0.1008489E-02 Eh
   gradient norm :     0.0081410 Eh/α   predicted    -0.8743728E-03 ( -13.30%)
   displ. norm   :     0.1270372 α      lambda       -0.3167015E-03
   maximum displ.:     0.0799870 α      in ANC's #1, #2, #4, ...

........................................................................
.............................. CYCLE    4 ..............................
........................................................................

 iter      E             dE          RMSdq      gap      omega  full diag
   1    -50.2888313 -0.502888E+02  0.689E-02    1.94       0.0  T
   2    -50.2888332 -0.190655E-05  0.402E-02    1.94       1.0  T
   3    -50.2888299  0.322361E-05  0.127E-02    1.94       1.6  T
   4    -50.2888339 -0.399792E-05  0.292E-03    1.94       7.1  T
   5    -50.2888340 -0.665399E-07  0.167E-03    1.94      12.5  T
   6    -50.2888340 -0.150071E-07  0.102E-03    1.94      20.4  T
   7    -50.2888340 -0.415064E-08  0.629E-04    1.94      33.2  T
   8    -50.2888340 -0.244879E-08  0.446E-04    1.94      46.8  T
     SCC iter.                  ...        0 min,  0.008 sec
     gradient                   ...        0 min,  0.003 sec
 * total energy  :   -49.6953803 Eh     change       -0.2418030E-03 Eh
   gradient norm :     0.0064063 Eh/α   predicted    -0.1609126E-03 ( -33.45%)
   displ. norm   :     0.2197967 α      lambda       -0.3116546E-03
   maximum displ.:     0.1438311 α      in ANC's #1, #2, #4, ...

........................................................................
.............................. CYCLE    5 ..............................
........................................................................

 iter      E             dE          RMSdq      gap      omega  full diag
   1    -50.2863757 -0.502864E+02  0.116E-01    1.94       0.0  T
   2    -50.2863795 -0.386089E-05  0.675E-02    1.94       1.0  T
   3    -50.2863741  0.548776E-05  0.166E-02    1.94       1.3  T
   4    -50.2863810 -0.689150E-05  0.382E-03    1.94       5.5  T
   5    -50.2863811 -0.118092E-06  0.211E-03    1.94       9.9  T
   6    -50.2863811 -0.374608E-07  0.118E-03    1.94      17.6  T
   7    -50.2863811 -0.706743E-08  0.804E-04    1.94      25.9  T
   8    -50.2863811 -0.421259E-08  0.602E-04    1.94      34.6  T
     SCC iter.                  ...        0 min,  0.008 sec
     gradient                   ...        0 min,  0.006 sec
 * total energy  :   -49.6955935 Eh     change       -0.2132075E-03 Eh
   gradient norm :     0.0039380 Eh/α   predicted    -0.1633564E-03 ( -23.38%)
   displ. norm   :     0.1872061 α      lambda       -0.1515219E-03
   maximum displ.:     0.1286510 α      in ANC's #1, #2, #3, ...

........................................................................
.............................. CYCLE    6 ..............................
........................................................................

 iter      E             dE          RMSdq      gap      omega  full diag
   1    -50.2854237 -0.502854E+02  0.968E-02    1.94       0.0  T
   2    -50.2854255 -0.182572E-05  0.563E-02    1.94       1.0  T
   3    -50.2854228  0.271609E-05  0.120E-02    1.94       1.7  T
   4    -50.2854263 -0.346714E-05  0.250E-03    1.94       8.3  T
   5    -50.2854263 -0.330668E-07  0.134E-03    1.94      15.5  T
   6    -50.2854263 -0.165561E-07  0.722E-04    1.94      28.9  T
   7    -50.2854263 -0.356149E-08  0.525E-04    1.94      39.7  T
     SCC iter.                  ...        0 min,  0.007 sec
     gradient                   ...        0 min,  0.003 sec
 * total energy  :   -49.6957167 Eh     change       -0.1232490E-03 Eh
   gradient norm :     0.0042147 Eh/α   predicted    -0.7842798E-04 ( -36.37%)
   displ. norm   :     0.2211652 α      lambda       -0.1762509E-03
   maximum displ.:     0.1485886 α      in ANC's #1, #2, #3, ...

........................................................................
.............................. CYCLE    7 ..............................
........................................................................

 iter      E             dE          RMSdq      gap      omega  full diag
   1    -50.2854544 -0.502855E+02  0.114E-01    1.94       0.0  T
   2    -50.2854562 -0.180594E-05  0.663E-02    1.93       1.0  T
   3    -50.2854539  0.225155E-05  0.117E-02    1.93       1.8  T
   4    -50.2854570 -0.303587E-05  0.265E-03    1.93       7.9  T
   5    -50.2854570 -0.241992E-07  0.136E-03    1.93      15.4  T
   6    -50.2854570 -0.131621E-07  0.808E-04    1.93      25.8  T
   7    -50.2854570 -0.451104E-08  0.613E-04    1.93      34.0  T
     SCC iter.                  ...        0 min,  0.007 sec
     gradient                   ...        0 min,  0.003 sec
 * total energy  :   -49.6958694 Eh     change       -0.1526975E-03 Eh
   gradient norm :     0.0054748 Eh/α   predicted    -0.9245636E-04 ( -39.45%)
   displ. norm   :     0.3186622 α      lambda       -0.2482609E-03
   maximum displ.:     0.2153786 α      in ANC's #1, #2, #3, ...

........................................................................
.............................. CYCLE    8 ..............................
........................................................................

 iter      E             dE          RMSdq      gap      omega  full diag
   1    -50.2858820 -0.502859E+02  0.164E-01    1.93       0.0  T
   2    -50.2858852 -0.315866E-05  0.952E-02    1.93       1.0  T
   3    -50.2858826  0.260374E-05  0.140E-02    1.93       1.5  T
   4    -50.2858865 -0.395453E-05  0.381E-03    1.93       5.5  T
   5    -50.2858866 -0.481784E-07  0.191E-03    1.93      10.9  T
   6    -50.2858866 -0.194705E-07  0.127E-03    1.93      16.5  T
   7    -50.2858866 -0.778805E-08  0.990E-04    1.93      21.1  T
   8    -50.2858866 -0.872584E-08  0.483E-04    1.93      43.2  T
     SCC iter.                  ...        0 min,  0.008 sec
     gradient                   ...        0 min,  0.003 sec
 * total energy  :   -49.6960758 Eh     change       -0.2063555E-03 Eh
   gradient norm :     0.0065504 Eh/α   predicted    -0.1367391E-03 ( -33.74%)
   displ. norm   :     0.3747298 α      lambda       -0.2487022E-03
   maximum displ.:     0.2592920 α      in ANC's #1, #2, #3, ...

........................................................................
.............................. CYCLE    9 ..............................
........................................................................

 iter      E             dE          RMSdq      gap      omega  full diag
   1    -50.2858546 -0.502859E+02  0.193E-01    1.92       0.0  T
   2    -50.2858584 -0.380860E-05  0.113E-01    1.92       1.0  T
   3    -50.2858555  0.289723E-05  0.150E-02    1.92       1.4  T
   4    -50.2858601 -0.454907E-05  0.427E-03    1.92       4.9  T
   5    -50.2858601 -0.600319E-07  0.213E-03    1.92       9.8  T
   6    -50.2858602 -0.274992E-07  0.137E-03    1.92      15.2  T
   7    -50.2858602 -0.843800E-08  0.107E-03    1.92      19.5  T
   8    -50.2858602 -0.966885E-08  0.520E-04    1.92      40.1  T
   9    -50.2858602 -0.266797E-08  0.281E-04    1.92      74.3  T
     SCC iter.                  ...        0 min,  0.009 sec
     gradient                   ...        0 min,  0.003 sec
 * total energy  :   -49.6962728 Eh     change       -0.1970598E-03 Eh
   gradient norm :     0.0062260 Eh/α   predicted    -0.1418177E-03 ( -28.03%)
   displ. norm   :     0.3218931 α      lambda       -0.1885526E-03
   maximum displ.:     0.2372017 α      in ANC's #1, #2, #3, ...

........................................................................
.............................. CYCLE   10 ..............................
........................................................................

 iter      E             dE          RMSdq      gap      omega  full diag
   1    -50.2865096 -0.502865E+02  0.166E-01    1.92       0.0  T
   2    -50.2865120 -0.233130E-05  0.969E-02    1.92       1.0  T
   3    -50.2865106  0.135824E-05  0.109E-02    1.92       1.9  T
   4    -50.2865130 -0.236134E-05  0.319E-03    1.92       6.5  T
   5    -50.2865130 -0.272664E-07  0.146E-03    1.92      14.3  T
   6    -50.2865130 -0.221346E-07  0.742E-04    1.92      28.1  T
   7    -50.2865130 -0.216173E-08  0.572E-04    1.92      36.5  T
     SCC iter.                  ...        0 min,  0.007 sec
     gradient                   ...        0 min,  0.003 sec
 * total energy  :   -49.6964206 Eh     change       -0.1477541E-03 Eh
   gradient norm :     0.0043677 Eh/α   predicted    -0.1040462E-03 ( -29.58%)
   displ. norm   :     0.2751181 α      lambda       -0.1357782E-03
   maximum displ.:     0.2132066 α      in ANC's #1, #3, #2, ...

........................................................................
.............................. CYCLE   11 ..............................
........................................................................

 iter      E             dE          RMSdq      gap      omega  full diag
   1    -50.2872644 -0.502873E+02  0.142E-01    1.91       0.0  T
   2    -50.2872658 -0.141006E-05  0.831E-02    1.91       1.0  T
   3    -50.2872642  0.159300E-05  0.954E-03    1.91       2.2  T
   4    -50.2872666 -0.232400E-05  0.265E-03    1.91       7.9  T
   5    -50.2872666 -0.161252E-07  0.127E-03    1.91      16.4  T
   6    -50.2872666 -0.178711E-07  0.757E-04    1.91      27.5  T
   7    -50.2872666 -0.289033E-08  0.564E-04    1.91      37.0  T
     SCC iter.                  ...        0 min,  0.007 sec
     gradient                   ...        0 min,  0.003 sec
 * total energy  :   -49.6965272 Eh     change       -0.1066300E-03 Eh
   gradient norm :     0.0027652 Eh/α   predicted    -0.7303710E-04 ( -31.50%)
   displ. norm   :     0.2379298 α      lambda       -0.9385196E-04
   maximum displ.:     0.1926970 α      in ANC's #1, #3, #2, ...

........................................................................
.............................. CYCLE   12 ..............................
........................................................................

 iter      E             dE          RMSdq      gap      omega  full diag
   1    -50.2876237 -0.502876E+02  0.120E-01    1.91       0.0  T
   2    -50.2876247 -0.964599E-06  0.702E-02    1.91       1.0  T
   3    -50.2876233  0.136337E-05  0.809E-03    1.91       2.6  T
   4    -50.2876252 -0.189471E-05  0.224E-03    1.91       9.3  T
   5    -50.2876252 -0.148291E-07  0.113E-03    1.91      18.5  T
   6    -50.2876252 -0.103121E-07  0.720E-04    1.91      29.0  T
   7    -50.2876252 -0.309588E-08  0.517E-04    1.91      40.4  T
     SCC iter.                  ...        0 min,  0.007 sec
     gradient                   ...        0 min,  0.003 sec
 * total energy  :   -49.6966033 Eh     change       -0.7609228E-04 Eh
   gradient norm :     0.0025685 Eh/α   predicted    -0.4958441E-04 ( -34.84%)
   displ. norm   :     0.1891859 α      lambda       -0.6771403E-04
   maximum displ.:     0.1588889 α      in ANC's #1, #3, #5, ...

........................................................................
.............................. CYCLE   13 ..............................
........................................................................

 iter      E             dE          RMSdq      gap      omega  full diag
   1    -50.2879351 -0.502879E+02  0.933E-02    1.91       0.0  T
   2    -50.2879357 -0.546440E-06  0.547E-02    1.91       1.0  T
   3    -50.2879344  0.130475E-05  0.724E-03    1.91       2.9  T
   4    -50.2879360 -0.164633E-05  0.182E-03    1.91      11.4  T
   5    -50.2879360 -0.124691E-07  0.115E-03    1.91      18.1  T
   6    -50.2879360 -0.832230E-08  0.724E-04    1.91      28.8  T
   7    -50.2879360 -0.353624E-08  0.520E-04    1.91      40.1  T
     SCC iter.                  ...        0 min,  0.007 sec
     gradient                   ...        0 min,  0.003 sec
 * total energy  :   -49.6966606 Eh     change       -0.5727741E-04 Eh
   gradient norm :     0.0026807 Eh/α   predicted    -0.3506946E-04 ( -38.77%)
   displ. norm   :     0.1685170 α      lambda       -0.5725250E-04
   maximum displ.:     0.1449670 α      in ANC's #1, #3, #5, ...

........................................................................
.............................. CYCLE   14 ..............................
........................................................................

 iter      E             dE          RMSdq      gap      omega  full diag
   1    -50.2879545 -0.502880E+02  0.795E-02    1.91       0.0  T
   2    -50.2879549 -0.440729E-06  0.466E-02    1.91       1.0  T
   3    -50.2879541  0.804605E-06  0.573E-03    1.91       3.6  T
   4    -50.2879551 -0.103885E-05  0.145E-03    1.91      14.4  T
   5    -50.2879551 -0.102054E-07  0.918E-04    1.91      22.7  T
   6    -50.2879552 -0.599601E-08  0.540E-04    1.91      38.6  T
     SCC iter.                  ...        0 min,  0.006 sec
     gradient                   ...        0 min,  0.003 sec
 * total energy  :   -49.6967093 Eh     change       -0.4873032E-04 Eh
   gradient norm :     0.0022959 Eh/α   predicted    -0.2944511E-04 ( -39.58%)
   displ. norm   :     0.1421842 α      lambda       -0.4745971E-04
   maximum displ.:     0.1246971 α      in ANC's #1, #3, #5, ...

........................................................................
.............................. CYCLE   15 ..............................
........................................................................

 iter      E             dE          RMSdq      gap      omega  full diag
   1    -50.2879276 -0.502879E+02  0.670E-02    1.91       0.0  T
   2    -50.2879279 -0.261762E-06  0.394E-02    1.91       1.0  T
   3    -50.2879273  0.544771E-06  0.483E-03    1.91       4.3  T
   4    -50.2879280 -0.694696E-06  0.123E-03    1.91      16.9  T
   5    -50.2879280 -0.824874E-08  0.849E-04    1.91      24.6  T
   6    -50.2879280 -0.507696E-08  0.498E-04    1.91      41.9  T
     SCC iter.                  ...        0 min,  0.006 sec
     gradient                   ...        0 min,  0.003 sec
 * total energy  :   -49.6967493 Eh     change       -0.3993833E-04 Eh
   gradient norm :     0.0020977 Eh/α   predicted    -0.2421151E-04 ( -39.38%)
   displ. norm   :     0.1193224 α      lambda       -0.3790724E-04
   maximum displ.:     0.1060395 α      in ANC's #1, #3, #2, ...

........................................................................
.............................. CYCLE   16 ..............................
........................................................................

 iter      E             dE          RMSdq      gap      omega  full diag
   1    -50.2879913 -0.502880E+02  0.547E-02    1.91       0.0  T
   2    -50.2879915 -0.217844E-06  0.321E-02    1.91       1.0  T
   3    -50.2879913  0.173026E-06  0.324E-03    1.91       6.4  T
   4    -50.2879916 -0.273232E-06  0.112E-03    1.91      18.6  T
   5    -50.2879916 -0.488844E-08  0.745E-04    1.91      28.0  T
   6    -50.2879916 -0.476667E-08  0.497E-04    1.91      42.0  T
     SCC iter.                  ...        0 min,  0.006 sec
     gradient                   ...        0 min,  0.005 sec
 * total energy  :   -49.6967824 Eh     change       -0.3315943E-04 Eh
   gradient norm :     0.0017891 Eh/α   predicted    -0.1922593E-04 ( -42.02%)
   displ. norm   :     0.1625274 α      lambda       -0.3253510E-04
   maximum displ.:     0.1446892 α      in ANC's #1, #2, #3, ...

........................................................................
.............................. CYCLE   17 ..............................
........................................................................

 iter      E             dE          RMSdq      gap      omega  full diag
   1    -50.2879100 -0.502879E+02  0.757E-02    1.91       0.0  T
   2    -50.2879104 -0.391873E-06  0.443E-02    1.91       1.0  T
   3    -50.2879104  0.402537E-07  0.328E-03    1.91       6.4  T
   4    -50.2879106 -0.214130E-06  0.147E-03    1.91      14.2  T
   5    -50.2879106 -0.882449E-08  0.774E-04    1.91      26.9  T
   6    -50.2879106 -0.508795E-08  0.545E-04    1.91      38.3  T
     SCC iter.                  ...        0 min,  0.007 sec
     gradient                   ...        0 min,  0.004 sec
 * total energy  :   -49.6968238 Eh     change       -0.4135760E-04 Eh
   gradient norm :     0.0017374 Eh/α   predicted    -0.1645987E-04 ( -60.20%)
   displ. norm   :     0.1392910 α      lambda       -0.2529665E-04
   maximum displ.:     0.1230951 α      in ANC's #1, #2, #4, ...

........................................................................
.............................. CYCLE   18 ..............................
........................................................................

 iter      E             dE          RMSdq      gap      omega  full diag
   1    -50.2877650 -0.502878E+02  0.664E-02    1.91       0.0  T
   2    -50.2877654 -0.354482E-06  0.388E-02    1.91       1.0  T
   3    -50.2877654 -0.119066E-07  0.269E-03    1.91       7.7  T
   4    -50.2877655 -0.121898E-06  0.133E-03    1.91      15.6  T
   5    -50.2877655 -0.131105E-07  0.599E-04    1.91      34.8  T
   6    -50.2877655 -0.270165E-08  0.390E-04    1.91      53.5  T
     SCC iter.                  ...        0 min,  0.006 sec
     gradient                   ...        0 min,  0.003 sec
 * total energy  :   -49.6968552 Eh     change       -0.3138264E-04 Eh
   gradient norm :     0.0016227 Eh/α   predicted    -0.1275842E-04 ( -59.35%)
   displ. norm   :     0.1501264 α      lambda       -0.2388722E-04
   maximum displ.:     0.1304854 α      in ANC's #1, #2, #24, ...

........................................................................
.............................. CYCLE   19 ..............................
........................................................................

 iter      E             dE          RMSdq      gap      omega  full diag
   1    -50.2880947 -0.502881E+02  0.725E-02    1.91       0.0  T
   2    -50.2880954 -0.660737E-06  0.424E-02    1.91       1.0  T
   3    -50.2880948  0.616781E-06  0.703E-03    1.91       3.0  T
   4    -50.2880957 -0.915501E-06  0.182E-03    1.91      11.4  T
   5    -50.2880957 -0.886088E-08  0.955E-04    1.91      21.8  T
   6    -50.2880957 -0.563072E-08  0.654E-04    1.91      31.9  T
     SCC iter.                  ...        0 min,  0.006 sec
     gradient                   ...        0 min,  0.003 sec
 * total energy  :   -49.6968784 Eh     change       -0.2325362E-04 Eh
   gradient norm :     0.0015389 Eh/α   predicted    -0.1206574E-04 ( -48.11%)
   displ. norm   :     0.1081073 α      lambda       -0.1490057E-04
   maximum displ.:     0.0977565 α      in ANC's #1, #2, #4, ...

........................................................................
.............................. CYCLE   20 ..............................
........................................................................

 iter      E             dE          RMSdq      gap      omega  full diag
   1    -50.2874173 -0.502874E+02  0.544E-02    1.91       0.0  T
   2    -50.2874176 -0.268112E-06  0.318E-02    1.91       1.0  T
   3    -50.2874175  0.123873E-06  0.312E-03    1.91       6.7  T
   4    -50.2874177 -0.232869E-06  0.118E-03    1.91      17.6  T
   5    -50.2874177 -0.547159E-08  0.672E-04    1.91      31.0  T
   6    -50.2874177 -0.449010E-08  0.428E-04    1.91      48.7  T
     SCC iter.                  ...        0 min,  0.006 sec
     gradient                   ...        0 min,  0.003 sec
 * total energy  :   -49.6968911 Eh     change       -0.1264786E-04 Eh
   gradient norm :     0.0012245 Eh/α   predicted    -0.7493617E-05 ( -40.75%)
   displ. norm   :     0.0745230 α      lambda       -0.7211358E-05
   maximum displ.:     0.0687253 α      in ANC's #1, #2, #4, ...
 * RMSD in coord.:     0.7006577 α      energy gain  -0.7643906E-02 Eh

generating ANC from exact Hessian ...
Using Lindh-Hessian (1995)
 Shifting diagonal of input Hessian by    8.8882714053508186E-003
 Lowest  eigenvalues of input Hessian
    0.000000    0.000000    0.000000    0.000000    0.000000    0.000000
    0.010000    0.010696    0.011437    0.014685    0.015788    0.020752
    0.021721    0.025018    0.029808    0.031460    0.035742    0.039123
 Highest eigenvalues
    1.931661    2.011349    2.059032    2.139373    2.241046    2.431202


........................................................................
.............................. CYCLE   21 ..............................
........................................................................

 iter      E             dE          RMSdq      gap      omega  full diag
   1    -50.2877105 -0.502877E+02  0.364E-02    1.91       0.0  T
   2    -50.2877107 -0.201193E-06  0.214E-02    1.91       1.0  T
   3    -50.2877103  0.380514E-06  0.486E-03    1.91       4.3  T
   4    -50.2877108 -0.480507E-06  0.117E-03    1.91      17.9  T
   5    -50.2877108 -0.646281E-08  0.821E-04    1.91      25.4  T
   6    -50.2877108 -0.354606E-08  0.632E-04    1.91      33.0  T
     SCC iter.                  ...        0 min,  0.006 sec
     gradient                   ...        0 min,  0.003 sec
 * total energy  :   -49.6968954 Eh     change       -0.4355019E-05 Eh
   gradient norm :     0.0015775 Eh/α   predicted     0.0000000E+00 (-100.00%)
   displ. norm   :     0.0212453 α      lambda       -0.5013213E-05
   maximum displ.:     0.0126028 α      in ANC's #2, #1, #4, ...

........................................................................
.............................. CYCLE   22 ..............................
........................................................................

 iter      E             dE          RMSdq      gap      omega  full diag
   1    -50.2879763 -0.502880E+02  0.131E-02    1.91       0.0  T
   2    -50.2879763 -0.738550E-07  0.781E-03    1.91       2.7  T
   3    -50.2879763  0.640196E-07  0.190E-03    1.91      11.0  T
   4    -50.2879764 -0.772510E-07  0.507E-04    1.91      41.2  T
   5    -50.2879764 -0.372147E-08  0.292E-04    1.91      71.3  T
     SCC iter.                  ...        0 min,  0.005 sec
     gradient                   ...        0 min,  0.003 sec
 * total energy  :   -49.6968992 Eh     change       -0.3734021E-05 Eh
   gradient norm :     0.0007130 Eh/α   predicted    -0.3006150E-05 ( -19.49%)
   displ. norm   :     0.0188660 α      lambda       -0.2553280E-05
   maximum displ.:     0.0127889 α      in ANC's #2, #1, #3, ...

   *** GEOMETRY OPTIMIZATION CONVERGED AFTER 22 ITERATIONS ***

------------------------------------------------------------------------
 total energy gain   :        -0.0076520 Eh       -4.8017 kcal/mol
 total RMSD          :         0.7032374 a0        0.3721 Å
 total power (kW/mol):        -0.9131959 (step)  -75.1117 (real)
------------------------------------------------------------------------

 ANCopt (total)                0 d,  0 h,  0 min,  0.267 sec
 optimizer setup                ...        0 min,  0.000 sec (  0.047%)
 model hessian                  ...        0 min,  0.005 sec (  1.975%)
 ANC generation                 ...        0 min,  0.001 sec (  0.281%)
 coordinate transformation      ...        0 min,  0.000 sec (  0.069%)
 single point calculation       ...        0 min,  0.255 sec ( 95.188%)
 optimization log               ...        0 min,  0.003 sec (  1.259%)
 hessian update                 ...        0 min,  0.001 sec (  0.254%)
 rational function              ...        0 min,  0.001 sec (  0.524%)

================
 final structure:
================
23
 xtb: 6.7.1 (edcfbbe)
N            1.17655858775398        0.35422774144244        0.52003985312336
C            1.08823114693508       -0.92371182440032        0.14816714943414
C           -0.15830609999228       -1.48907449772793       -0.14176746873075
C           -1.26333247951442       -0.65185506102130       -0.04226220922226
N           -1.15280968435484        0.62552848081123        0.30956028365958
C            0.06292261787912        1.05600512277002        0.57846335469882
C           -2.64904746993682       -1.14146026078038       -0.33050646681354
O           -3.61694566718151       -0.44604665695142       -0.45294109755828
O           -2.69294637410170       -2.47781119990914       -0.44984915688450
C            2.34518686954415       -1.67726040433188        0.08500811496257
C            3.45219693062285       -1.21009268732939        0.79482600727478
C            4.64887594321487       -1.89486878528874        0.76051571317899
C            4.76657529104417       -3.05509316294997        0.00668152079635
C            3.66978607444526       -3.52134496621204       -0.71627724944892
C            2.46679129238687       -2.83851283790677       -0.67431210826605
Cl           3.80384236433555       -4.94984863218624       -1.67085988265353
Cl           6.26045283827196       -3.90401871780894       -0.03682974922053
H           -0.27749007701858       -2.52424949720413       -0.41048778318268
H            0.15713980730755        2.09187917067616        0.87739501901479
H           -3.60259358548892       -2.76271229277100       -0.63302287959426
H            3.35176080121591       -0.30358532629133        1.36970051768407
H            5.50314863841665       -1.53756766264523        1.31330549200143
H            1.64103223421537       -3.21105604198450       -1.25877697425330

 Bond Distances (Angstroems)
 ---------------------------
N1-C2=1.3339         N1-C6=1.3176         C2-N1=1.3339         C2-C3=1.3991         C2-C10=1.4669        C3-C2=1.3991         
C3-C4=1.3899         C3-H18=1.0761        C4-C3=1.3899         C4-N5=1.3296         C4-C7=1.4977         N5-C4=1.3296         
N5-C6=1.3174         C6-N1=1.3176         C6-N5=1.3174         C6-H19=1.0823        C7-C4=1.4977         C7-O8=1.1981         
C7-O9=1.3424         O8-C7=1.1981         O9-C7=1.3424         O9-H20=0.9707        C10-C2=1.4669        C10-C11=1.3955       
C10-C15=1.3928       C11-C10=1.3955       C11-C12=1.3792       C11-H21=1.0781       C12-C11=1.3792       C12-C13=1.3886       
C12-H22=1.0784       C13-C12=1.3886       C13-C14=1.3939       C13-Cl17=1.7188      C14-C13=1.3939       C14-C15=1.3839       
C14-Cl16=1.7233      C15-C10=1.3928       C15-C14=1.3839       C15-H23=1.0781       Cl16-C14=1.7233      Cl17-C13=1.7188      
H18-C3=1.0761        H19-C6=1.0823        H20-O9=0.9707        H21-C11=1.0781       H22-C12=1.0784       H23-C15=1.0781       
 C  H  Rav=1.0786 sigma=0.0020  Rmin=1.0761  Rmax=1.0823     5
 C  C  Rav=1.4088 sigma=0.0378  Rmin=1.3792  Rmax=1.4977    10
 N  C  Rav=1.3246 sigma=0.0073  Rmin=1.3174  Rmax=1.3339     4
 O  H  Rav=0.9707 sigma=0.0000  Rmin=0.9707  Rmax=0.9707     1
 O  C  Rav=1.2702 sigma=0.0721  Rmin=1.1981  Rmax=1.3424     2
 Cl C  Rav=1.7211 sigma=0.0023  Rmin=1.7188  Rmax=1.7233     2

 selected bond angles (degree)
 --------------------
C6-N1-C2=117.82                C3-C2-N1=120.26                C10-C2-N1=116.58               C10-C2-C3=123.16               
C4-C3-C2=116.75                H18-C3-C2=122.62               H18-C3-C4=120.61               N5-C4-C3=122.11                
C7-C4-C3=121.66                C7-C4-N5=116.23                C6-N5-C4=116.40                N5-C6-N1=126.65                
H19-C6-N1=116.64               H19-C6-N5=116.71               O8-C7-C4=125.27                O9-C7-C4=111.89                
O9-C7-O8=122.84                H20-O9-C7=109.85               C11-C10-C2=119.07              C15-C10-C2=121.78              
C15-C10-C11=119.15             

 selected dihedral angles (degree)
 ---------------------------------
C3-C2-N1-C6=358.82            C10-C2-N1-C6=179.66           C4-C3-C2-N1=  1.03            C4-C3-C2-C10=180.13           
H18-C3-C2-N1=182.27           H18-C3-C2-C10=  1.37          N5-C4-C3-C2=  0.04            N5-C4-C3-H18=178.83           
C7-C4-C3-C2=179.87            C7-C4-C3-H18=358.66           C6-N5-C4-C3=359.11            C6-N5-C4-C7=179.26            
N5-C6-N1-C2=  0.27            H19-C6-N1-C2=180.30           N1-C6-N5-C4=  0.78            H19-C6-N5-C4=180.74           
O8-C7-C4-C3=191.29            O8-C7-C4-N5= 11.13            O9-C7-C4-C3= 10.85            O9-C7-C4-N5=190.69            
H20-O9-C7-C4=179.82           H20-O9-C7-O8=359.39           C11-C10-C2-N1= 20.45          C11-C10-C2-C3=201.32          
C15-C10-C2-N1=201.08          C15-C10-C2-C3= 21.95          
           -------------------------------------------------
          |                Final Singlepoint                |
           -------------------------------------------------

          ...................................................
          :                      SETUP                      :
          :.................................................:
          :  # basis functions                  86          :
          :  # atomic orbitals                  84          :
          :  # shells                           42          :
          :  # electrons                        86          :
          :  max. iterations                   250          :
          :  Hamiltonian                  GFN2-xTB          :
          :  restarted?                      false          :
          :  GBSA solvation                  false          :
          :  PC potential                    false          :
          :  electronic temp.          300.0000000     K    :
          :  accuracy                    1.0000000          :
          :  -> integral cutoff          0.2500000E+02      :
          :  -> integral neglect         0.1000000E-07      :
          :  -> SCF convergence          0.1000000E-05 Eh   :
          :  -> wf. convergence          0.1000000E-03 e    :
          :  Broyden damping             0.4000000          :
          :  net charge                          0          :
          :  unpaired electrons                  0          :
          ...................................................

 iter      E             dE          RMSdq      gap      omega  full diag
   1    -50.2879764 -0.502880E+02  0.222E-04    1.91       0.0  T
   2    -50.2879764 -0.172754E-09  0.182E-04    1.91     114.8  T
   3    -50.2879764 -0.911271E-10  0.152E-04    1.91     136.9  T

   *** convergence criteria satisfied after 3 iterations ***

         #    Occupation            Energy/Eh            Energy/eV
      -------------------------------------------------------------
         1        2.0000           -1.0725196             -29.1847
       ...           ...                  ...                  ...
        37        2.0000           -0.4430079             -12.0549
        38        2.0000           -0.4361653             -11.8687
        39        2.0000           -0.4347151             -11.8292
        40        2.0000           -0.4295362             -11.6883
        41        2.0000           -0.4206188             -11.4456
        42        2.0000           -0.4118177             -11.2061
        43        2.0000           -0.3870191             -10.5313 (HOMO)
        44                         -0.3169273              -8.6240 (LUMO)
        45                         -0.2934800              -7.9860
        46                         -0.2639023              -7.1811
        47                         -0.2497791              -6.7968
        48                         -0.2182059              -5.9377
       ...                                ...                  ...
        84                          0.6826511              18.5759
      -------------------------------------------------------------
                  HL-Gap            0.0700918 Eh            1.9073 eV
             Fermi-level           -0.3519732 Eh           -9.5777 eV

 SCC (total)                   0 d,  0 h,  0 min,  0.008 sec
 SCC setup                      ...        0 min,  0.000 sec (  1.017%)
 Dispersion                     ...        0 min,  0.000 sec (  1.080%)
 classical contributions        ...        0 min,  0.000 sec (  0.183%)
 integral evaluation            ...        0 min,  0.001 sec ( 17.091%)
 iterations                     ...        0 min,  0.003 sec ( 38.067%)
 molecular gradient             ...        0 min,  0.003 sec ( 41.296%)
 printout                       ...        0 min,  0.000 sec (  1.084%)

         :::::::::::::::::::::::::::::::::::::::::::::::::::::
         ::                     SUMMARY                     ::
         :::::::::::::::::::::::::::::::::::::::::::::::::::::
         :: total energy             -49.696899153857 Eh    ::
         :: gradient norm              0.000712384355 Eh/a0 ::
         :: HOMO-LUMO gap              1.907295095139 eV    ::
         ::.................................................::
         :: SCC energy               -50.288110898508 Eh    ::
         :: -> isotropic ES            0.067326735352 Eh    ::
         :: -> anisotropic ES          0.001296201022 Eh    ::
         :: -> anisotropic XC          0.022658504141 Eh    ::
         :: -> dispersion             -0.027024541655 Eh    ::
         :: repulsion energy           0.591211744651 Eh    ::
         :: add. restraining           0.000000000000 Eh    ::
         :: total charge               0.000000000000 e     ::
         :::::::::::::::::::::::::::::::::::::::::::::::::::::

           -------------------------------------------------
          |                Property Printout                |
           -------------------------------------------------

    * Orbital Energies and Occupations

         #    Occupation            Energy/Eh            Energy/eV
      -------------------------------------------------------------
         1        2.0000           -1.0725196             -29.1847
       ...           ...                  ...                  ...
        31        2.0000           -0.4917818             -13.3821
        32        2.0000           -0.4765237             -12.9669
        33        2.0000           -0.4731497             -12.8751
        34        2.0000           -0.4711197             -12.8198
        35        2.0000           -0.4695027             -12.7758
        36        2.0000           -0.4557008             -12.4003
        37        2.0000           -0.4430079             -12.0549
        38        2.0000           -0.4361653             -11.8687
        39        2.0000           -0.4347151             -11.8292
        40        2.0000           -0.4295362             -11.6883
        41        2.0000           -0.4206188             -11.4456
        42        2.0000           -0.4118177             -11.2061
        43        2.0000           -0.3870191             -10.5313 (HOMO)
        44                         -0.3169273              -8.6240 (LUMO)
        45                         -0.2934800              -7.9860
        46                         -0.2639023              -7.1811
        47                         -0.2497791              -6.7968
        48                         -0.2182059              -5.9377
        49                         -0.1644463              -4.4748
        50                         -0.1492603              -4.0616
        51                         -0.1466894              -3.9916
        52                         -0.1127099              -3.0670
        53                         -0.0074622              -0.2031
        54                         -0.0009313              -0.0253
       ...                                ...                  ...
        84                          0.6826511              18.5759
      -------------------------------------------------------------
                  HL-Gap            0.0700918 Eh            1.9073 eV
             Fermi-level           -0.3519732 Eh           -9.5777 eV

     #   Z          covCN         q      C6AA      α(0)
     1   7 N        1.843    -0.230    26.888     7.685
     2   6 C        2.976     0.117    25.424     8.271
     3   6 C        2.910    -0.047    29.179     8.858
     4   6 C        2.983     0.088    26.038     8.370
     5   7 N        1.839    -0.212    26.460     7.623
     6   6 C        2.911     0.153    24.689     8.148
     7   6 C        2.695     0.354    20.993     7.499
     8   8 O        0.856    -0.365    20.996     6.143
     9   8 O        1.660    -0.377    20.413     6.099
    10   6 C        2.979     0.008    27.836     8.654
    11   6 C        2.925    -0.026    28.658     8.779
    12   6 C        2.955    -0.037    28.907     8.818
    13   6 C        2.918     0.092    25.948     8.353
    14   6 C        2.917     0.090    25.997     8.361
    15   6 C        2.961    -0.042    29.036     8.838
    16  17 Cl       0.989    -0.138   103.470    15.562
    17  17 Cl       0.988    -0.128   103.163    15.539
    18   1 H        0.926     0.068     2.107     2.270
    19   1 H        0.925     0.062     2.170     2.304
    20   1 H        0.804     0.336     0.621     1.238
    21   1 H        0.926     0.085     1.932     2.174
    22   1 H        0.926     0.077     2.012     2.218
    23   1 H        0.926     0.073     2.048     2.238

 Mol. C6AA /au·bohr⁶  :      10865.030712
 Mol. C8AA /au·bohr⁸  :     305206.875781
 Mol. α(0) /au        :        164.043274


Wiberg/Mayer (AO) data.
largest (>0.10) Wiberg bond orders for each atom

 ---------------------------------------------------------------------------
     #   Z sym  total        # sym  WBO       # sym  WBO       # sym  WBO
 ---------------------------------------------------------------------------
     1   7 N    3.065 --     6 C    1.438     2 C    1.380
     2   6 C    3.975 --     1 N    1.380     3 C    1.362    10 C    1.060
     3   6 C    3.986 --     4 C    1.414     2 C    1.362    18 H    0.961
                             6 C    0.106
     4   6 C    3.979 --     3 C    1.414     5 N    1.390     7 C    0.967
     5   7 N    3.062 --     6 C    1.432     4 C    1.390
     6   6 C    3.962 --     1 N    1.438     5 N    1.432    19 H    0.954
                             3 C    0.106
     7   6 C    3.921 --     8 O    1.785     9 O    1.123     4 C    0.967
     8   8 O    2.077 --     7 C    1.785     9 O    0.181
     9   8 O    2.197 --     7 C    1.123    20 H    0.863     8 O    0.181
    10   6 C    3.989 --    15 C    1.380    11 C    1.366     2 C    1.060
    11   6 C    3.985 --    12 C    1.460    10 C    1.366    21 H    0.961
    12   6 C    3.985 --    11 C    1.460    13 C    1.388    22 H    0.963
    13   6 C    3.921 --    12 C    1.388    14 C    1.351    17 Cl   1.006
    14   6 C    3.928 --    15 C    1.416    13 C    1.351    16 Cl   0.996
    15   6 C    3.985 --    14 C    1.416    10 C    1.380    23 H    0.960
    16  17 Cl   1.144 --    14 C    0.996
    17  17 Cl   1.155 --    13 C    1.006
    18   1 H    0.995 --     3 C    0.961
    19   1 H    0.995 --     6 C    0.954
    20   1 H    0.886 --     9 O    0.863
    21   1 H    0.992 --    11 C    0.961
    22   1 H    0.994 --    12 C    0.963
    23   1 H    0.995 --    15 C    0.960
 ---------------------------------------------------------------------------

Topologies differ in total number of bonds
Writing topology from bond orders to xtbtopo.mol

molecular dipole:
                 x           y           z       tot (Debye)
 q only:        0.211      -0.025       0.437
   full:        0.336      -0.796       0.162       2.235
molecular quadrupole (traceless):
                xx          xy          yy          xz          yz          zz
 q only:       -6.539      22.393      -0.802       7.153      -2.314       7.340
  q+dip:       -4.872      18.959       2.230       6.405       1.897       2.642
   full:       -7.432      19.080       1.404       4.788      -0.238       6.028

           -------------------------------------------------
          |                Geometry Summary                 |
           -------------------------------------------------

      molecular mass/u    :      269.0838308
   center of mass at/Å    :        1.8000718      -2.0945842      -0.2098647
  moments of inertia/u·Å² :        0.5721142E+03   0.3026702E+04   0.3552234E+04
rotational constants/cm⁻¹ :        0.2946550E-01   0.5569637E-02   0.4745642E-02

 * 22 selected distances

     #   Z          #   Z                                           value/Å
     1   7 N        2   6 C                                       1.3338744
     2   6 C        3   6 C                                       1.3991256
     3   6 C        4   6 C                                       1.3899357
     4   6 C        5   7 N                                       1.3295501
     1   7 N        6   6 C                                       1.3176078
     5   7 N        6   6 C                                       1.3174310
     7   6 C        8   8 O                                       1.1980891
     7   6 C        9   8 O                                       1.3423874
    10   6 C       11   6 C                                       1.3955496
    11   6 C       12   6 C                                       1.3791797
    12   6 C       13   6 C                                       1.3886108
    13   6 C       14   6 C                                       1.3939179
    10   6 C       15   6 C                                       1.3927894
    14   6 C       15   6 C                                       1.3839139
    14   6 C       16  17 Cl                                      1.7233173 (max)
    13   6 C       17  17 Cl                                      1.7187898
     3   6 C       18   1 H                                       1.0761054
     6   6 C       19   1 H                                       1.0822533
     9   8 O       20   1 H                                       0.9706593 (min)
    11   6 C       21   1 H                                       1.0781113
    12   6 C       22   1 H                                       1.0784353
    15   6 C       23   1 H                                       1.0780843

 * 6 distinct bonds (by element types)

   Z      Z             #   av. dist./Å        max./Å        min./Å
   1 H    6 C           5     1.0785979     1.0822533     1.0761054
   6 C    6 C           8     1.3903778     1.3991256     1.3791797
   6 C    7 N           4     1.3246158     1.3338744     1.3174310
   1 H    8 O           1     0.9706593     0.9706593     0.9706593
   6 C    8 O           2     1.2702383     1.3423874     1.1980891
   6 C   17 Cl          2     1.7210535     1.7233173     1.7187898


optimized geometry written to: xtbopt.xyz


           -------------------------------------------------
          | TOTAL ENERGY              -49.696899153857 Eh   |
          | GRADIENT NORM               0.000712384355 Eh/α |
          | HOMO-LUMO GAP               1.907295095139 eV   |
           -------------------------------------------------

------------------------------------------------------------------------
 * finished run on 2024/12/17 at 14:08:05.335     
------------------------------------------------------------------------
 total:
 * wall-time:     0 d,  0 h,  0 min,  0.316 sec
 *  cpu-time:     0 d,  0 h,  0 min,  2.494 sec
 * ratio c/w:     7.903 speedup
 SCF:
 * wall-time:     0 d,  0 h,  0 min,  0.022 sec
 *  cpu-time:     0 d,  0 h,  0 min,  0.172 sec
 * ratio c/w:     7.947 speedup
 ANC optimizer:
 * wall-time:     0 d,  0 h,  0 min,  0.276 sec
 *  cpu-time:     0 d,  0 h,  0 min,  2.194 sec
 * ratio c/w:     7.945 speedup

