      -----------------------------------------------------------      
     |                   =====================                   |     
     |                           x T B                           |     
     |                   =====================                   |     
     |                         S. Grimme                         |     
     |          Mulliken Center for Theoretical Chemistry        |     
     |                    University of Bonn                     |     
      -----------------------------------------------------------      

   * xtb version 6.7.1 (edcfbbe) compiled by 'conda@3ef47c1a292c' on 2024-11-25

   xtb is free software: you can redistribute it and/or modify it under
   the terms of the GNU Lesser General Public License as published by
   the Free Software Foundation, either version 3 of the License, or
   (at your option) any later version.
   
   xtb is distributed in the hope that it will be useful,
   but WITHOUT ANY WARRANTY; without even the implied warranty of
   MERCHANTABILITY or FITNESS FOR A PARTICULAR PURPOSE.  See the
   GNU Lesser General Public License for more details.
   
   Cite this work as:
   * C. Bannwarth, E. Caldeweyher, S. Ehlert, A. Hansen, P. Pracht,
     J. Seibert, S. Spicher, S. Grimme, WIREs Comput. Mol. Sci., 2020, 11,
     e01493. DOI: 10.1002/wcms.1493
   
   for GFN2-xTB:
   * C. Bannwarth, S. Ehlert and S. Grimme., J. Chem. Theory Comput., 2019,
     15, 1652-1671. DOI: 10.1021/acs.jctc.8b01176
   for GFN1-xTB:
   * S. Grimme, C. Bannwarth, P. Shushkov, J. Chem. Theory Comput., 2017,
     13, 1989-2009. DOI: 10.1021/acs.jctc.7b00118
   for GFN0-xTB:
   * P. Pracht, E. Caldeweyher, S. Ehlert, S. Grimme, ChemRxiv, 2019, preprint.
     DOI: 10.26434/chemrxiv.8326202.v1
   for GFN-FF:
   * S. Spicher and S. Grimme, Angew. Chem. Int. Ed., 2020, 59, 15665-15673.
     DOI: 10.1002/anie.202004239
   
   for ALPB and GBSA implicit solvation:
   * S. Ehlert, M. Stahn, S. Spicher, S. Grimme, J. Chem. Theory Comput.,
     2021, 17, 4250-4261. DOI: 10.1021/acs.jctc.1c00471
   
   for ddCOSMO and CPCM-X implicit solvation:
   * M. Stahn, S. Ehlert, S. Grimme, J. Phys. Chem. A,
     2023, XX, XXXX-XXXX. DOI: 10.1021/acs.jpca.3c04382
   
   for DFT-D4:
   * E. Caldeweyher, C. Bannwarth and S. Grimme, J. Chem. Phys., 2017,
     147, 034112. DOI: 10.1063/1.4993215
   * E. Caldeweyher, S. Ehlert, A. Hansen, H. Neugebauer, S. Spicher,
     C. Bannwarth and S. Grimme, J. Chem. Phys., 2019, 150, 154122.
     DOI: 10.1063/1.5090222
   * E. Caldeweyher, J.-M. Mewes, S. Ehlert and S. Grimme, Phys. Chem. Chem. Phys.
     2020, 22, 8499-8512. DOI: 10.1039/D0CP00502A
   
   for sTDA-xTB:
   * S. Grimme and C. Bannwarth, J. Chem. Phys., 2016, 145, 054103.
     DOI: 10.1063/1.4959605
   
   in the mass-spec context:
   * V. Asgeirsson, C. Bauer and S. Grimme, Chem. Sci., 2017, 8, 4879.
     DOI: 10.1039/c7sc00601b
   * J. Koopman and S. Grimme, ACS Omega 2019, 4, 12, 15120-15133.
     DOI: 10.1021/acsomega.9b02011
   
   for metadynamics refer to:
   * S. Grimme, J. Chem. Theory Comput., 2019, 155, 2847-2862
     DOI: 10.1021/acs.jctc.9b00143
   
   for SPH calculations refer to:
   * S. Spicher and S. Grimme, J. Chem. Theory Comput., 2021, 17, 1701-1714
     DOI: 10.1021/acs.jctc.0c01306
   
   for ONIOM refer to:
   * C. Plett, A. Katbashev, S. Ehlert, S. Grimme, M. Bursch,
     Phys. Chem. Chem. Phys., 2023, 25, 17860-17868. DOI: 10.1039/D3CP02178E
   
   for DIPRO refer to:
   * J. Kohn, N. Gildemeister, S. Grimme, D. Fazzi, A. Hansen,
     J. Chem. Phys., 2023, just accepted.
   
   for PTB refer to:
   * S. Grimme, M. Mueller, A. Hansen, J. Chem. Phys., 2023, 158, 124111.
     DOI: 10.1063/5.0137838
   
   with help from (in alphabetical order)
   P. Atkinson, C. Bannwarth, F. Bohle, G. Brandenburg, E. Caldeweyher
   M. Checinski, S. Dohm, S. Ehlert, S. Ehrlich, I. Gerasimov, C. Hölzer
   A. Katbashev, J. Kohn, J. Koopman, C. Lavigne, S. Lehtola, F. März, M. Müller,
   F. Musil, H. Neugebauer, J. Pisarek, C. Plett, P. Pracht, F. Pultar,
   J. Seibert, P. Shushkov, S. Spicher, M. Stahn, M. Steiner, T. Strunk,
   J. Stückrath, T. Rose, and J. Unsleber
   
 * started run on 2024/12/17 at 14:07:59.101     
   ID    Z sym.   atoms
    1    7 N      1, 5
    2    6 C      2-4, 6, 7, 10-15, 17
    3    8 O      8, 9
    4   17 Cl     16
    5    1 H      18-26

           -------------------------------------------------
          |                Calculation Setup                |
           -------------------------------------------------

          program call               : xtb K009.xyz --opt --namespace K009
          calculation namespace      : K009
          coordinate file            : K009.xyz
          omp threads                :                     8


           -------------------------------------------------
          |                 G F N 2 - x T B                 |
           -------------------------------------------------

        Reference                      10.1021/acs.jctc.8b01176
      * Hamiltonian:
        H0-scaling (s, p, d)           1.850000    2.230000    2.230000
        zeta-weighting                 0.500000
      * Dispersion:
        s8                             2.700000
        a1                             0.520000
        a2                             5.000000
        s9                             5.000000
      * Repulsion:
        kExp                           1.500000    1.000000
        rExp                           1.000000
      * Coulomb:
        alpha                          2.000000
        third order                    shell-resolved
        anisotropic                    true
        a3                             3.000000
        a5                             4.000000
        cn-shift                       1.200000
        cn-exp                         4.000000
        max-rad                        5.000000


          ...................................................
          :                      SETUP                      :
          :.................................................:
          :  # basis functions                  83          :
          :  # atomic orbitals                  82          :
          :  # shells                           44          :
          :  # electrons                        86          :
          :  max. iterations                   250          :
          :  Hamiltonian                  GFN2-xTB          :
          :  restarted?                      false          :
          :  GBSA solvation                  false          :
          :  PC potential                    false          :
          :  electronic temp.          300.0000000     K    :
          :  accuracy                    1.0000000          :
          :  -> integral cutoff          0.2500000E+02      :
          :  -> integral neglect         0.1000000E-07      :
          :  -> SCF convergence          0.1000000E-05 Eh   :
          :  -> wf. convergence          0.1000000E-03 e    :
          :  Broyden damping             0.4000000          :
          :  net charge                          0          :
          :  unpaired electrons                  0          :
          ...................................................

 iter      E             dE          RMSdq      gap      omega  full diag
   1    -49.3654095 -0.493654E+02  0.478E+00    2.26       0.0  T
   2    -49.4142892 -0.488797E-01  0.285E+00    2.23       1.0  T
   3    -49.4117295  0.255968E-02  0.133E+00    1.98       1.0  T
   4    -49.4230556 -0.113261E-01  0.306E-01    1.89       1.0  T
   5    -49.4248896 -0.183401E-02  0.111E-01    1.86       1.0  T
   6    -49.4250883 -0.198652E-03  0.462E-02    1.86       1.0  T
   7    -49.4250959 -0.756679E-05  0.253E-02    1.86       1.0  T
   8    -49.4251044 -0.853337E-05  0.144E-02    1.86       1.4  T
   9    -49.4251057 -0.133224E-05  0.103E-02    1.86       1.9  T
  10    -49.4251065 -0.783945E-06  0.683E-03    1.86       2.9  T
  11    -49.4251071 -0.600454E-06  0.338E-03    1.86       5.8  T
  12    -49.4251072 -0.947993E-07  0.155E-03    1.86      12.7  T
  13    -49.4251072 -0.292437E-07  0.704E-04    1.86      27.9  T
  14    -49.4251072 -0.279655E-08  0.425E-04    1.86      46.2  T

   *** convergence criteria satisfied after 14 iterations ***

         #    Occupation            Energy/Eh            Energy/eV
      -------------------------------------------------------------
         1        2.0000           -1.0606353             -28.8614
       ...           ...                  ...                  ...
        37        2.0000           -0.4484000             -12.2016
        38        2.0000           -0.4399430             -11.9715
        39        2.0000           -0.4238597             -11.5338
        40        2.0000           -0.4211582             -11.4603
        41        2.0000           -0.4172770             -11.3547
        42        2.0000           -0.4039267             -10.9914
        43        2.0000           -0.3843550             -10.4588 (HOMO)
        44                         -0.3158754              -8.5954 (LUMO)
        45                         -0.2822836              -7.6813
        46                         -0.2512323              -6.8364
        47                         -0.2459299              -6.6921
        48                         -0.2204874              -5.9998
       ...                                ...                  ...
        82                          0.6359354              17.3047
      -------------------------------------------------------------
                  HL-Gap            0.0684796 Eh            1.8634 eV
             Fermi-level           -0.3501152 Eh           -9.5271 eV

 SCC (total)                   0 d,  0 h,  0 min,  0.021 sec
 SCC setup                      ...        0 min,  0.000 sec (  0.535%)
 Dispersion                     ...        0 min,  0.000 sec (  1.226%)
 classical contributions        ...        0 min,  0.000 sec (  0.260%)
 integral evaluation            ...        0 min,  0.003 sec ( 11.844%)
 iterations                     ...        0 min,  0.015 sec ( 71.233%)
 molecular gradient             ...        0 min,  0.003 sec ( 14.399%)
 printout                       ...        0 min,  0.000 sec (  0.428%)

         :::::::::::::::::::::::::::::::::::::::::::::::::::::
         ::                     SUMMARY                     ::
         :::::::::::::::::::::::::::::::::::::::::::::::::::::
         :: total energy             -48.813477625374 Eh    ::
         :: gradient norm              0.074778035983 Eh/a0 ::
         :: HOMO-LUMO gap              1.863425605695 eV    ::
         ::.................................................::
         :: SCC energy               -49.425211178640 Eh    ::
         :: -> isotropic ES            0.065809892656 Eh    ::
         :: -> anisotropic ES          0.004317765304 Eh    ::
         :: -> anisotropic XC          0.026845286688 Eh    ::
         :: -> dispersion             -0.027607825266 Eh    ::
         :: repulsion energy           0.611733553266 Eh    ::
         :: add. restraining           0.000000000000 Eh    ::
         :: total charge              -0.000000000000 e     ::
         :::::::::::::::::::::::::::::::::::::::::::::::::::::

      ----------------------------------------------------------- 
     |                   =====================                   |
     |                        A N C O P T                        |
     |                   =====================                   |
     |               Approximate Normal Coordinate               |
     |                Rational Function Optimizer                |
      ----------------------------------------------------------- 
      ----------------------------------------------------------- 
     |                   =====================                   |
     |                        A N C O P T                        |
     |                   =====================                   |
     |               Approximate Normal Coordinate               |
     |                Rational Function Optimizer                |
      ----------------------------------------------------------- 

          ...................................................
          :                      SETUP                      :
          :.................................................:
          :   optimization level            normal          :
          :   max. optcycles                   200          :
          :   ANC micro-cycles                  20          :
          :   degrees of freedom                72          :
          :.................................................:
          :   RF solver                   davidson          :
          :   write xtbopt.log                true          :
          :   linear?                        false          :
          :   energy convergence         0.5000000E-05 Eh   :
          :   grad. convergence          0.1000000E-02 Eh/α :
          :   maxmium RF displ.          1.0000000          :
          :   Hlow (freq-cutoff)         0.1000000E-01      :
          :   Hmax (freq-cutoff)         5.0000000          :
          :   S6 in model hess.         20.0000000          :
          ...................................................

generating ANC from exact Hessian ...
Using Lindh-Hessian (1995)
 Shifting diagonal of input Hessian by    9.1540732365990220E-003
 Lowest  eigenvalues of input Hessian
    0.000000    0.000000    0.000000    0.000000    0.000000    0.000000
    0.010000    0.010304    0.011185    0.014031    0.015216    0.017472
    0.018955    0.020340    0.021975    0.025640    0.026584    0.030670
 Highest eigenvalues
    1.899176    1.918731    2.008959    2.071907    2.120696    2.331376


........................................................................
.............................. CYCLE    1 ..............................
........................................................................

 iter      E             dE          RMSdq      gap      omega  full diag
   1    -49.4251072 -0.494251E+02  0.254E-04    1.86       0.0  T
   2    -49.4251072 -0.288473E-09  0.203E-04    1.86      96.5  T
   3    -49.4251072 -0.152440E-09  0.166E-04    1.86     118.5  T
     SCC iter.                  ...        0 min,  0.003 sec
     gradient                   ...        0 min,  0.003 sec
 * total energy  :   -48.8134776 Eh     change       -0.1423423E-08 Eh
   gradient norm :     0.0747754 Eh/α   predicted     0.0000000E+00 (-100.00%)
   displ. norm   :     0.1888933 α      lambda       -0.7560536E-02
   maximum displ.:     0.0851438 α      in ANC's #36, #13, #10, ...

........................................................................
.............................. CYCLE    2 ..............................
........................................................................

 iter      E             dE          RMSdq      gap      omega  full diag
   1    -49.4611504 -0.494612E+02  0.164E-01    1.92       0.0  T
   2    -49.4612225 -0.721373E-04  0.108E-01    1.91       1.0  T
   3    -49.4612127  0.987949E-05  0.542E-02    1.91       1.0  T
   4    -49.4612490 -0.363332E-04  0.144E-02    1.91       1.4  T
   5    -49.4612517 -0.267268E-05  0.649E-03    1.91       3.0  T
   6    -49.4612519 -0.239979E-06  0.504E-03    1.91       3.9  T
   7    -49.4612521 -0.184933E-06  0.346E-03    1.91       5.7  T
   8    -49.4612522 -0.120887E-06  0.244E-03    1.91       8.0  T
   9    -49.4612523 -0.753477E-07  0.794E-04    1.91      24.7  T
  10    -49.4612523 -0.541623E-08  0.404E-04    1.91      48.6  T
     SCC iter.                  ...        0 min,  0.010 sec
     gradient                   ...        0 min,  0.003 sec
 * total energy  :   -48.8185245 Eh     change       -0.5046842E-02 Eh
   gradient norm :     0.0249720 Eh/α   predicted    -0.3915577E-02 ( -22.42%)
   displ. norm   :     0.1644723 α      lambda       -0.1738670E-02
   maximum displ.:     0.0578473 α      in ANC's #2, #10, #13, ...

........................................................................
.............................. CYCLE    3 ..............................
........................................................................

 iter      E             dE          RMSdq      gap      omega  full diag
   1    -49.4750058 -0.494750E+02  0.106E-01    1.93       0.0  T
   2    -49.4750242 -0.183570E-04  0.674E-02    1.93       1.0  T
   3    -49.4750133  0.108327E-04  0.339E-02    1.93       1.0  T
   4    -49.4750329 -0.195771E-04  0.676E-03    1.93       2.9  T
   5    -49.4750335 -0.531286E-06  0.320E-03    1.93       6.1  T
   6    -49.4750335 -0.549703E-07  0.224E-03    1.93       8.7  T
   7    -49.4750335 -0.361343E-07  0.146E-03    1.93      13.5  T
   8    -49.4750336 -0.185205E-07  0.110E-03    1.93      17.8  T
   9    -49.4750336 -0.151097E-07  0.428E-04    1.93      45.9  T
  10    -49.4750336 -0.161657E-08  0.253E-04    1.93      77.4  T
     SCC iter.                  ...        0 min,  0.010 sec
     gradient                   ...        0 min,  0.003 sec
 * total energy  :   -48.8195472 Eh     change       -0.1022736E-02 Eh
   gradient norm :     0.0074885 Eh/α   predicted    -0.8929493E-03 ( -12.69%)
   displ. norm   :     0.1223349 α      lambda       -0.2987087E-03
   maximum displ.:     0.0709451 α      in ANC's #2, #3, #4, ...

........................................................................
.............................. CYCLE    4 ..............................
........................................................................

 iter      E             dE          RMSdq      gap      omega  full diag
   1    -49.4749938 -0.494750E+02  0.614E-02    1.93       0.0  T
   2    -49.4749954 -0.165471E-05  0.358E-02    1.93       1.0  T
   3    -49.4749932  0.222924E-05  0.113E-02    1.93       1.7  T
   4    -49.4749961 -0.284962E-05  0.219E-03    1.93       9.0  T
   5    -49.4749961 -0.366091E-07  0.112E-03    1.93      17.6  T
   6    -49.4749961 -0.930530E-08  0.499E-04    1.93      39.3  T
   7    -49.4749961 -0.119414E-08  0.257E-04    1.93      76.3  T
     SCC iter.                  ...        0 min,  0.007 sec
     gradient                   ...        0 min,  0.003 sec
 * total energy  :   -48.8197739 Eh     change       -0.2267004E-03 Eh
   gradient norm :     0.0060433 Eh/α   predicted    -0.1515907E-03 ( -33.13%)
   displ. norm   :     0.2101633 α      lambda       -0.2903355E-03
   maximum displ.:     0.1327278 α      in ANC's #2, #3, #1, ...

........................................................................
.............................. CYCLE    5 ..............................
........................................................................

 iter      E             dE          RMSdq      gap      omega  full diag
   1    -49.4727927 -0.494728E+02  0.103E-01    1.94       0.0  T
   2    -49.4727959 -0.326772E-05  0.598E-02    1.93       1.0  T
   3    -49.4727929  0.307507E-05  0.143E-02    1.93       1.4  T
   4    -49.4727971 -0.419115E-05  0.314E-03    1.93       6.2  T
   5    -49.4727971 -0.547276E-07  0.177E-03    1.93      11.1  T
   6    -49.4727971 -0.266695E-07  0.954E-04    1.93      20.6  T
   7    -49.4727971 -0.530862E-08  0.669E-04    1.93      29.3  T
     SCC iter.                  ...        0 min,  0.007 sec
     gradient                   ...        0 min,  0.006 sec
 * total energy  :   -48.8199703 Eh     change       -0.1964189E-03 Eh
   gradient norm :     0.0039198 Eh/α   predicted    -0.1515807E-03 ( -22.83%)
   displ. norm   :     0.1823464 α      lambda       -0.1416502E-03
   maximum displ.:     0.1209286 α      in ANC's #2, #3, #1, ...

........................................................................
.............................. CYCLE    6 ..............................
........................................................................

 iter      E             dE          RMSdq      gap      omega  full diag
   1    -49.4717637 -0.494718E+02  0.884E-02    1.94       0.0  T
   2    -49.4717653 -0.164950E-05  0.514E-02    1.93       1.0  T
   3    -49.4717637  0.161644E-05  0.993E-03    1.94       2.0  T
   4    -49.4717659 -0.223243E-05  0.232E-03    1.93       8.5  T
   5    -49.4717660 -0.263945E-07  0.130E-03    1.93      15.1  T
   6    -49.4717660 -0.132658E-07  0.777E-04    1.93      25.3  T
   7    -49.4717660 -0.411218E-08  0.586E-04    1.93      33.5  T
     SCC iter.                  ...        0 min,  0.007 sec
     gradient                   ...        0 min,  0.003 sec
 * total energy  :   -48.8200842 Eh     change       -0.1138764E-03 Eh
   gradient norm :     0.0039669 Eh/α   predicted    -0.7319316E-04 ( -35.73%)
   displ. norm   :     0.2212094 α      lambda       -0.1682135E-03
   maximum displ.:     0.1430085 α      in ANC's #2, #3, #1, ...

........................................................................
.............................. CYCLE    7 ..............................
........................................................................

 iter      E             dE          RMSdq      gap      omega  full diag
   1    -49.4715430 -0.494715E+02  0.106E-01    1.94       0.0  T
   2    -49.4715446 -0.162230E-05  0.620E-02    1.93       1.0  T
   3    -49.4715430  0.163130E-05  0.943E-03    1.94       2.1  T
   4    -49.4715452 -0.228764E-05  0.233E-03    1.93       8.4  T
   5    -49.4715453 -0.250739E-07  0.118E-03    1.93      16.6  T
   6    -49.4715453 -0.118951E-07  0.678E-04    1.93      28.9  T
   7    -49.4715453 -0.395329E-08  0.513E-04    1.93      38.2  T
     SCC iter.                  ...        0 min,  0.007 sec
     gradient                   ...        0 min,  0.003 sec
 * total energy  :   -48.8202286 Eh     change       -0.1444330E-03 Eh
   gradient norm :     0.0052715 Eh/α   predicted    -0.8824570E-04 ( -38.90%)
   displ. norm   :     0.3249542 α      lambda       -0.2429091E-03
   maximum displ.:     0.2100291 α      in ANC's #2, #3, #1, ...

........................................................................
.............................. CYCLE    8 ..............................
........................................................................

 iter      E             dE          RMSdq      gap      omega  full diag
   1    -49.4716254 -0.494716E+02  0.155E-01    1.93       0.0  T
   2    -49.4716281 -0.273857E-05  0.900E-02    1.93       1.0  T
   3    -49.4716257  0.246101E-05  0.117E-02    1.93       1.7  T
   4    -49.4716293 -0.361097E-05  0.310E-03    1.93       6.3  T
   5    -49.4716293 -0.403331E-07  0.141E-03    1.93      13.9  T
   6    -49.4716294 -0.216025E-07  0.769E-04    1.93      25.5  T
   7    -49.4716294 -0.547208E-08  0.571E-04    1.93      34.3  T
     SCC iter.                  ...        0 min,  0.007 sec
     gradient                   ...        0 min,  0.003 sec
 * total energy  :   -48.8204311 Eh     change       -0.2025115E-03 Eh
   gradient norm :     0.0066194 Eh/α   predicted    -0.1342846E-03 ( -33.69%)
   displ. norm   :     0.4142356 α      lambda       -0.2703901E-03
   maximum displ.:     0.2690656 α      in ANC's #2, #3, #1, ...

........................................................................
.............................. CYCLE    9 ..............................
........................................................................

 iter      E             dE          RMSdq      gap      omega  full diag
   1    -49.4712134 -0.494712E+02  0.195E-01    1.93       0.0  T
   2    -49.4712173 -0.391648E-05  0.114E-01    1.93       1.0  T
   3    -49.4712132  0.406810E-05  0.152E-02    1.93       1.3  T
   4    -49.4712191 -0.581990E-05  0.379E-03    1.93       5.2  T
   5    -49.4712191 -0.510013E-07  0.180E-03    1.93      10.9  T
   6    -49.4712192 -0.354428E-07  0.966E-04    1.93      20.3  T
   7    -49.4712192 -0.770380E-08  0.723E-04    1.93      27.1  T
     SCC iter.                  ...        0 min,  0.007 sec
     gradient                   ...        0 min,  0.003 sec
 * total energy  :   -48.8206471 Eh     change       -0.2159856E-03 Eh
   gradient norm :     0.0064632 Eh/α   predicted    -0.1583950E-03 ( -26.66%)
   displ. norm   :     0.4225226 α      lambda       -0.2437087E-03
   maximum displ.:     0.2805562 α      in ANC's #2, #1, #3, ...

........................................................................
.............................. CYCLE   10 ..............................
........................................................................

 iter      E             dE          RMSdq      gap      omega  full diag
   1    -49.4713076 -0.494713E+02  0.197E-01    1.92       0.0  T
   2    -49.4713111 -0.353205E-05  0.115E-01    1.92       1.0  T
   3    -49.4713071  0.403755E-05  0.153E-02    1.92       1.3  T
   4    -49.4713128 -0.571533E-05  0.360E-03    1.92       5.4  T
   5    -49.4713128 -0.345996E-07  0.170E-03    1.92      11.6  T
   6    -49.4713128 -0.360497E-07  0.804E-04    1.92      24.4  T
   7    -49.4713128 -0.525623E-08  0.588E-04    1.92      33.4  T
     SCC iter.                  ...        0 min,  0.007 sec
     gradient                   ...        0 min,  0.003 sec
 * total energy  :   -48.8208329 Eh     change       -0.1857763E-03 Eh
   gradient norm :     0.0048385 Eh/α   predicted    -0.1436103E-03 ( -22.70%)
   displ. norm   :     0.3905025 α      lambda       -0.1914625E-03
   maximum displ.:     0.2622705 α      in ANC's #2, #1, #3, ...

........................................................................
.............................. CYCLE   11 ..............................
........................................................................

 iter      E             dE          RMSdq      gap      omega  full diag
   1    -49.4722492 -0.494722E+02  0.180E-01    1.92       0.0  T
   2    -49.4722517 -0.241654E-05  0.105E-01    1.92       1.0  T
   3    -49.4722477  0.396473E-05  0.138E-02    1.92       1.4  T
   4    -49.4722530 -0.530237E-05  0.297E-03    1.92       6.6  T
   5    -49.4722530 -0.144558E-07  0.129E-03    1.92      15.2  T
   6    -49.4722530 -0.250605E-07  0.435E-04    1.92      45.1  T
   7    -49.4722530 -0.201545E-08  0.224E-04    1.92      87.7  T
     SCC iter.                  ...        0 min,  0.007 sec
     gradient                   ...        0 min,  0.003 sec
 * total energy  :   -48.8209734 Eh     change       -0.1404570E-03 Eh
   gradient norm :     0.0037403 Eh/α   predicted    -0.1103301E-03 ( -21.45%)
   displ. norm   :     0.3307361 α      lambda       -0.1233669E-03
   maximum displ.:     0.2228493 α      in ANC's #2, #1, #3, ...

........................................................................
.............................. CYCLE   12 ..............................
........................................................................

 iter      E             dE          RMSdq      gap      omega  full diag
   1    -49.4729385 -0.494729E+02  0.150E-01    1.92       0.0  T
   2    -49.4729400 -0.148294E-05  0.875E-02    1.92       1.0  T
   3    -49.4729375  0.253868E-05  0.103E-02    1.92       1.9  T
   4    -49.4729409 -0.340747E-05  0.242E-03    1.92       8.1  T
   5    -49.4729409 -0.994608E-08  0.107E-03    1.92      18.4  T
   6    -49.4729409 -0.143862E-07  0.562E-04    1.92      34.9  T
   7    -49.4729409 -0.214997E-08  0.408E-04    1.92      48.0  T
     SCC iter.                  ...        0 min,  0.008 sec
     gradient                   ...        0 min,  0.004 sec
 * total energy  :   -48.8210650 Eh     change       -0.9168510E-04 Eh
   gradient norm :     0.0038971 Eh/α   predicted    -0.6843267E-04 ( -25.36%)
   displ. norm   :     0.3145649 α      lambda       -0.8834548E-04
   maximum displ.:     0.2114278 α      in ANC's #2, #1, #3, ...

........................................................................
.............................. CYCLE   13 ..............................
........................................................................

 iter      E             dE          RMSdq      gap      omega  full diag
   1    -49.4731644 -0.494732E+02  0.140E-01    1.92       0.0  T
   2    -49.4731655 -0.116434E-05  0.822E-02    1.92       1.0  T
   3    -49.4731635  0.202218E-05  0.908E-03    1.92       2.2  T
   4    -49.4731662 -0.270387E-05  0.217E-03    1.92       9.1  T
   5    -49.4731662 -0.883765E-08  0.106E-03    1.92      18.5  T
   6    -49.4731662 -0.126276E-07  0.510E-04    1.92      38.5  T
   7    -49.4731662 -0.147830E-08  0.368E-04    1.92      53.3  T
     SCC iter.                  ...        0 min,  0.007 sec
     gradient                   ...        0 min,  0.003 sec
 * total energy  :   -48.8211292 Eh     change       -0.6415212E-04 Eh
   gradient norm :     0.0036835 Eh/α   predicted    -0.4854832E-04 ( -24.32%)
   displ. norm   :     0.2478775 α      lambda       -0.6196530E-04
   maximum displ.:     0.1655214 α      in ANC's #2, #1, #3, ...

........................................................................
.............................. CYCLE   14 ..............................
........................................................................

 iter      E             dE          RMSdq      gap      omega  full diag
   1    -49.4744630 -0.494745E+02  0.106E-01    1.92       0.0  T
   2    -49.4744638 -0.836198E-06  0.625E-02    1.92       1.0  T
   3    -49.4744620  0.180057E-05  0.820E-03    1.92       2.4  T
   4    -49.4744643 -0.230412E-05  0.211E-03    1.92       9.3  T
   5    -49.4744643 -0.166000E-07  0.144E-03    1.92      13.7  T
   6    -49.4744643 -0.173384E-07  0.904E-04    1.92      21.7  T
   7    -49.4744643 -0.615439E-08  0.655E-04    1.92      30.0  T
     SCC iter.                  ...        0 min,  0.007 sec
     gradient                   ...        0 min,  0.003 sec
 * total energy  :   -48.8211689 Eh     change       -0.3967171E-04 Eh
   gradient norm :     0.0029478 Eh/α   predicted    -0.3288729E-04 ( -17.10%)
   displ. norm   :     0.3928814 α      lambda       -0.5475388E-04
   maximum displ.:     0.2612447 α      in ANC's #2, #1, #3, ...

........................................................................
.............................. CYCLE   15 ..............................
........................................................................

 iter      E             dE          RMSdq      gap      omega  full diag
   1    -49.4700157 -0.494700E+02  0.175E-01    1.92       0.0  T
   2    -49.4700184 -0.269956E-05  0.102E-01    1.92       1.0  T
   3    -49.4700148  0.356062E-05  0.152E-02    1.92       1.3  T
   4    -49.4700196 -0.482384E-05  0.339E-03    1.92       5.8  T
   5    -49.4700197 -0.501926E-07  0.222E-03    1.92       8.8  T
   6    -49.4700197 -0.256217E-07  0.142E-03    1.92      13.8  T
   7    -49.4700197 -0.146905E-07  0.105E-03    1.92      18.6  T
   8    -49.4700197 -0.882533E-08  0.683E-04    1.92      28.7  T
   9    -49.4700197 -0.716860E-08  0.273E-04    1.92      71.9  T
     SCC iter.                  ...        0 min,  0.009 sec
     gradient                   ...        0 min,  0.003 sec
 * total energy  :   -48.8211662 Eh     change        0.2688491E-05 Eh
   gradient norm :     0.0045800 Eh/α   predicted    -0.3160455E-04 (*******%)
   displ. norm   :     0.1030808 α      lambda       -0.8149403E-04
   maximum displ.:     0.0663689 α      in ANC's #2, #3, #1, ...

........................................................................
.............................. CYCLE   16 ..............................
........................................................................

 iter      E             dE          RMSdq      gap      omega  full diag
   1    -49.4745539 -0.494746E+02  0.544E-02    1.93       0.0  T
   2    -49.4745555 -0.153883E-05  0.319E-02    1.93       1.0  T
   3    -49.4745531  0.236959E-05  0.131E-02    1.93       1.5  T
   4    -49.4745563 -0.322949E-05  0.313E-03    1.93       6.3  T
   5    -49.4745564 -0.476859E-07  0.243E-03    1.93       8.1  T
   6    -49.4745564 -0.369354E-07  0.173E-03    1.93      11.4  T
   7    -49.4745565 -0.338538E-07  0.104E-03    1.93      18.9  T
   8    -49.4745565 -0.104518E-07  0.517E-04    1.93      37.9  T
   9    -49.4745565 -0.485392E-08  0.135E-04    1.93     144.9  T
     SCC iter.                  ...        0 min,  0.009 sec
     gradient                   ...        0 min,  0.004 sec
 * total energy  :   -48.8212011 Eh     change       -0.3495099E-04 Eh
   gradient norm :     0.0024083 Eh/α   predicted    -0.4118109E-04 (  17.83%)
   displ. norm   :     0.0311510 α      lambda       -0.2440265E-04
   maximum displ.:     0.0224595 α      in ANC's #1, #6, #3, ...

........................................................................
.............................. CYCLE   17 ..............................
........................................................................

 iter      E             dE          RMSdq      gap      omega  full diag
   1    -49.4746335 -0.494746E+02  0.182E-02    1.93       0.0  T
   2    -49.4746336 -0.825835E-07  0.108E-02    1.93       1.8  T
   3    -49.4746335  0.115063E-06  0.261E-03    1.93       7.5  T
   4    -49.4746336 -0.148280E-06  0.515E-04    1.93      38.1  T
   5    -49.4746336 -0.782528E-09  0.261E-04    1.93      75.2  T
     SCC iter.                  ...        0 min,  0.005 sec
     gradient                   ...        0 min,  0.003 sec
 * total energy  :   -48.8212142 Eh     change       -0.1303030E-04 Eh
   gradient norm :     0.0018869 Eh/α   predicted    -0.1224283E-04 (  -6.04%)
   displ. norm   :     0.1719532 α      lambda       -0.1861228E-04
   maximum displ.:     0.1322550 α      in ANC's #1, #2, #3, ...

........................................................................
.............................. CYCLE   18 ..............................
........................................................................

 iter      E             dE          RMSdq      gap      omega  full diag
   1    -49.4737250 -0.494737E+02  0.691E-02    1.92       0.0  T
   2    -49.4737254 -0.407839E-06  0.405E-02    1.92       1.0  T
   3    -49.4737253  0.713565E-07  0.329E-03    1.92       6.0  T
   4    -49.4737255 -0.202006E-06  0.119E-03    1.92      16.5  T
   5    -49.4737256 -0.102697E-07  0.597E-04    1.92      32.8  T
   6    -49.4737256 -0.117675E-08  0.274E-04    1.92      71.5  T
     SCC iter.                  ...        0 min,  0.006 sec
     gradient                   ...        0 min,  0.003 sec
 * total energy  :   -48.8212339 Eh     change       -0.1973109E-04 Eh
   gradient norm :     0.0022102 Eh/α   predicted    -0.9439699E-05 ( -52.16%)
   displ. norm   :     0.1659529 α      lambda       -0.3035809E-04
   maximum displ.:     0.1389586 α      in ANC's #1, #2, #4, ...

........................................................................
.............................. CYCLE   19 ..............................
........................................................................

 iter      E             dE          RMSdq      gap      omega  full diag
   1    -49.4733874 -0.494734E+02  0.629E-02    1.92       0.0  T
   2    -49.4733879 -0.531596E-06  0.368E-02    1.92       1.0  T
   3    -49.4733879  0.526138E-07  0.322E-03    1.92       6.1  T
   4    -49.4733881 -0.190080E-06  0.128E-03    1.92      15.3  T
   5    -49.4733881 -0.162546E-07  0.561E-04    1.92      34.9  T
   6    -49.4733881 -0.919201E-09  0.275E-04    1.92      71.4  T
     SCC iter.                  ...        0 min,  0.006 sec
     gradient                   ...        0 min,  0.003 sec
 * total energy  :   -48.8212537 Eh     change       -0.1980865E-04 Eh
   gradient norm :     0.0021553 Eh/α   predicted    -0.1560330E-04 ( -21.23%)
   displ. norm   :     0.1399608 α      lambda       -0.2484730E-04
   maximum displ.:     0.1205981 α      in ANC's #1, #3, #6, ...

........................................................................
.............................. CYCLE   20 ..............................
........................................................................

 iter      E             dE          RMSdq      gap      omega  full diag
   1    -49.4737070 -0.494737E+02  0.497E-02    1.92       0.0  T
   2    -49.4737075 -0.496105E-06  0.289E-02    1.92       1.0  T
   3    -49.4737074  0.117127E-06  0.383E-03    1.92       5.1  T
   4    -49.4737077 -0.305346E-06  0.148E-03    1.92      13.3  T
   5    -49.4737077 -0.858782E-08  0.697E-04    1.92      28.1  T
   6    -49.4737077 -0.558581E-08  0.447E-04    1.92      43.9  T
     SCC iter.                  ...        0 min,  0.006 sec
     gradient                   ...        0 min,  0.003 sec
 * total energy  :   -48.8212700 Eh     change       -0.1629979E-04 Eh
   gradient norm :     0.0019107 Eh/α   predicted    -0.1266914E-04 ( -22.27%)
   displ. norm   :     0.1720084 α      lambda       -0.1574357E-04
   maximum displ.:     0.1507768 α      in ANC's #1, #3, #6, ...
 * RMSD in coord.:     0.7773734 α      energy gain  -0.7792380E-02 Eh

generating ANC from exact Hessian ...
Using Lindh-Hessian (1995)
 Shifting diagonal of input Hessian by    9.1358840144161960E-003
 Lowest  eigenvalues of input Hessian
    0.000000    0.000000    0.000000    0.000000    0.000000    0.000000
    0.010000    0.010518    0.011254    0.013928    0.015090    0.018116
    0.019304    0.020556    0.023012    0.026712    0.028553    0.031547
 Highest eigenvalues
    1.941826    1.991213    2.058993    2.139029    2.242330    2.425905


........................................................................
.............................. CYCLE   21 ..............................
........................................................................

 iter      E             dE          RMSdq      gap      omega  full diag
   1    -49.4738718 -0.494739E+02  0.617E-02    1.92       0.0  T
   2    -49.4738725 -0.689521E-06  0.358E-02    1.92       1.0  T
   3    -49.4738725  0.446928E-07  0.416E-03    1.92       4.7  T
   4    -49.4738727 -0.284876E-06  0.164E-03    1.92      11.9  T
   5    -49.4738728 -0.130142E-07  0.594E-04    1.92      33.0  T
   6    -49.4738728 -0.266741E-08  0.347E-04    1.92      56.5  T
     SCC iter.                  ...        0 min,  0.006 sec
     gradient                   ...        0 min,  0.003 sec
 * total energy  :   -48.8212823 Eh     change       -0.1233120E-04 Eh
   gradient norm :     0.0020200 Eh/α   predicted     0.0000000E+00 (-100.00%)
   displ. norm   :     0.0189171 α      lambda       -0.1212755E-04
   maximum displ.:     0.0085582 α      in ANC's #6, #9, #7, ...

........................................................................
.............................. CYCLE   22 ..............................
........................................................................

 iter      E             dE          RMSdq      gap      omega  full diag
   1    -49.4740054 -0.494740E+02  0.116E-02    1.92       0.0  T
   2    -49.4740054 -0.332003E-07  0.684E-03    1.92       2.9  T
   3    -49.4740054  0.304379E-07  0.127E-03    1.92      15.5  T
   4    -49.4740054 -0.411122E-07  0.430E-04    1.92      45.6  T
   5    -49.4740054 -0.161323E-08  0.297E-04    1.92      66.1  T
     SCC iter.                  ...        0 min,  0.005 sec
     gradient                   ...        0 min,  0.003 sec
 * total energy  :   -48.8212909 Eh     change       -0.8528729E-05 Eh
   gradient norm :     0.0008090 Eh/α   predicted    -0.6210805E-05 ( -27.18%)
   displ. norm   :     0.0369301 α      lambda       -0.7118664E-05
   maximum displ.:     0.0200725 α      in ANC's #3, #6, #9, ...

........................................................................
.............................. CYCLE   23 ..............................
........................................................................

 iter      E             dE          RMSdq      gap      omega  full diag
   1    -49.4741122 -0.494741E+02  0.163E-02    1.92       0.0  T
   2    -49.4741123 -0.813709E-07  0.963E-03    1.92       2.0  T
   3    -49.4741123  0.433942E-07  0.171E-03    1.92      11.5  T
   4    -49.4741123 -0.678214E-07  0.572E-04    1.92      34.3  T
   5    -49.4741123 -0.346370E-08  0.342E-04    1.92      57.4  T
     SCC iter.                  ...        0 min,  0.005 sec
     gradient                   ...        0 min,  0.003 sec
 * total energy  :   -48.8212958 Eh     change       -0.4922081E-05 Eh
   gradient norm :     0.0010630 Eh/α   predicted    -0.3563457E-05 ( -27.60%)
   displ. norm   :     0.0192767 α      lambda       -0.2568415E-05
   maximum displ.:     0.0125655 α      in ANC's #3, #6, #11, ...

........................................................................
.............................. CYCLE   24 ..............................
........................................................................

 iter      E             dE          RMSdq      gap      omega  full diag
   1    -49.4740572 -0.494741E+02  0.740E-03    1.92       0.0  T
   2    -49.4740572 -0.875414E-08  0.440E-03    1.92       4.5  T
   3    -49.4740572 -0.426198E-09  0.433E-04    1.92      45.3  T
   4    -49.4740572 -0.263555E-08  0.212E-04    1.92      92.7  T
     SCC iter.                  ...        0 min,  0.004 sec
     gradient                   ...        0 min,  0.003 sec
 * total energy  :   -48.8212988 Eh     change       -0.3039969E-05 Eh
   gradient norm :     0.0005669 Eh/α   predicted    -0.1284904E-05 ( -57.73%)
   displ. norm   :     0.0582415 α      lambda       -0.5618964E-05
   maximum displ.:     0.0393069 α      in ANC's #6, #3, #5, ...

   *** GEOMETRY OPTIMIZATION CONVERGED AFTER 24 ITERATIONS ***

------------------------------------------------------------------------
 total energy gain   :        -0.0078212 Eh       -4.9079 kcal/mol
 total RMSD          :         0.7772263 a0        0.4113 Å
 total power (kW/mol):        -0.8556068 (step)  -72.6982 (real)
------------------------------------------------------------------------

 ANCopt (total)                0 d,  0 h,  0 min,  0.282 sec
 optimizer setup                ...        0 min,  0.000 sec (  0.035%)
 model hessian                  ...        0 min,  0.007 sec (  2.571%)
 ANC generation                 ...        0 min,  0.001 sec (  0.307%)
 coordinate transformation      ...        0 min,  0.000 sec (  0.072%)
 single point calculation       ...        0 min,  0.267 sec ( 94.641%)
 optimization log               ...        0 min,  0.003 sec (  1.165%)
 hessian update                 ...        0 min,  0.000 sec (  0.153%)
 rational function              ...        0 min,  0.002 sec (  0.649%)

================
 final structure:
================
26
 xtb: 6.7.1 (edcfbbe)
N            1.20214823319861        0.31471343159362        0.55330765936674
C            1.09927117474515       -0.95797493469245        0.16561879943148
C           -0.15560658374867       -1.49926150546630       -0.13889458576114
C           -1.24745850858361       -0.64653269627593       -0.04066045286660
N           -1.12209909051205        0.62430284129956        0.33231751103524
C            0.09858450254957        1.03069435653637        0.61737621254288
C           -2.63423878127264       -1.10898079739144       -0.36027741052573
O           -3.58796343115631       -0.39700434457921       -0.50002929765367
O           -2.70221605138968       -2.44480537808751       -0.48550261823882
C            2.34146307786873       -1.73145352324164        0.09655875282772
C            2.44408509349582       -2.91877250590557       -0.62553540194219
C            3.63941044175760       -3.61029340151311       -0.66137828756458
C            4.76556789571539       -3.15886711206537        0.01608192417919
C            4.64834038756906       -1.96600531503778        0.73125664819700
C            3.46605808016338       -1.25592165340150        0.77155888205792
Cl           6.01724752220763       -1.35377465214839        1.59501393540574
C            6.05293803514506       -3.91418498896055       -0.01481820258066
H           -0.28994718151630       -2.52857436256860       -0.42271326017313
H            0.20574435288617        2.05992696521743        0.93477247025850
H           -3.61437433857379       -2.70921304377236       -0.68660911656749
H            1.60036391160774       -3.29778843289089       -1.18018510196270
H            3.70559623391878       -4.52603952409129       -1.23013229364792
H            3.39237699771628       -0.33237371702335        1.32254416414023
H            6.85743524440982       -3.27396174641389       -0.37369911349354
H            6.31968592823668       -4.23960618899189        0.99010153008215
H            5.97688685356294       -4.78510777012711       -0.65970334654840

 Bond Distances (Angstroems)
 ---------------------------
N1-C2=1.3344         N1-C6=1.3170         C2-N1=1.3344         C2-C3=1.4002         C2-C10=1.4650        C3-C2=1.4002         
C3-C4=1.3889         C3-H18=1.0761        C4-C3=1.3889         C4-N5=1.3304         C4-C7=1.4964         N5-C4=1.3304         
N5-C6=1.3178         C6-N1=1.3170         C6-N5=1.3178         C6-H19=1.0824        C7-C4=1.4964         C7-O8=1.1983         
C7-O9=1.3434         O8-C7=1.1983         O9-C7=1.3434         O9-H20=0.9708        C10-C2=1.4650        C10-C11=1.3934       
C10-C15=1.3952       C11-C10=1.3934       C11-C12=1.3814       C11-H21=1.0785       C12-C11=1.3814       C12-C13=1.3896       
C12-H22=1.0800       C13-C12=1.3896       C13-C14=1.3958       C13-C17=1.4929       C14-C13=1.3958       C14-C15=1.3797       
C14-Cl16=1.7306      C15-C10=1.3952       C15-C14=1.3797       C15-H23=1.0779       Cl16-C14=1.7306      C17-C13=1.4929       
C17-H24=1.0890       C17-H25=1.0895       C17-H26=1.0864       H18-C3=1.0761        H19-C6=1.0824        H20-O9=0.9708        
H21-C11=1.0785       H22-C12=1.0800       H23-C15=1.0779       H24-C17=1.0890       H25-C17=1.0895       H26-C17=1.0864       
 C  H  Rav=1.0825 sigma=0.0049  Rmin=1.0761  Rmax=1.0895     8
 C  C  Rav=1.4162 sigma=0.0430  Rmin=1.3797  Rmax=1.4964    11
 N  C  Rav=1.3249 sigma=0.0076  Rmin=1.3170  Rmax=1.3344     4
 O  H  Rav=0.9708 sigma=0.0000  Rmin=0.9708  Rmax=0.9708     1
 O  C  Rav=1.2709 sigma=0.0725  Rmin=1.1983  Rmax=1.3434     2
 Cl C  Rav=1.7306 sigma=0.0000  Rmin=1.7306  Rmax=1.7306     1

 selected bond angles (degree)
 --------------------
C6-N1-C2=117.91                C3-C2-N1=120.07                C10-C2-N1=116.87               C10-C2-C3=123.07               
C4-C3-C2=116.86                H18-C3-C2=122.62               H18-C3-C4=120.52               N5-C4-C3=122.16                
C7-C4-C3=121.58                C7-C4-N5=116.26                C6-N5-C4=116.27                N5-C6-N1=126.73                
H19-C6-N1=116.63               H19-C6-N5=116.64               O8-C7-C4=125.37                O9-C7-C4=111.97                
O9-C7-O8=122.66                H20-O9-C7=109.74               C11-C10-C2=122.46              C15-C10-C2=118.73              
C15-C10-C11=118.80             

 selected dihedral angles (degree)
 ---------------------------------
C3-C2-N1-C6=359.05            C10-C2-N1-C6=179.73           C4-C3-C2-N1=  1.22            C4-C3-C2-C10=180.50           
H18-C3-C2-N1=182.15           H18-C3-C2-C10=  1.43          N5-C4-C3-C2=359.58            N5-C4-C3-H18=178.67           
C7-C4-C3-C2=179.12            C7-C4-C3-H18=358.22           C6-N5-C4-C3=359.39            C6-N5-C4-C7=179.82            
N5-C6-N1-C2=359.81            H19-C6-N1-C2=179.96           N1-C6-N5-C4=  0.98            H19-C6-N5-C4=180.82           
O8-C7-C4-C3=192.17            O8-C7-C4-N5= 11.74            O9-C7-C4-C3= 11.83            O9-C7-C4-N5=191.41            
H20-O9-C7-C4=179.64           H20-O9-C7-O8=359.32           C11-C10-C2-N1=198.21          C11-C10-C2-C3= 18.90          
C15-C10-C2-N1= 17.74          C15-C10-C2-C3=198.44          
           -------------------------------------------------
          |                Final Singlepoint                |
           -------------------------------------------------

          ...................................................
          :                      SETUP                      :
          :.................................................:
          :  # basis functions                  83          :
          :  # atomic orbitals                  82          :
          :  # shells                           44          :
          :  # electrons                        86          :
          :  max. iterations                   250          :
          :  Hamiltonian                  GFN2-xTB          :
          :  restarted?                      false          :
          :  GBSA solvation                  false          :
          :  PC potential                    false          :
          :  electronic temp.          300.0000000     K    :
          :  accuracy                    1.0000000          :
          :  -> integral cutoff          0.2500000E+02      :
          :  -> integral neglect         0.1000000E-07      :
          :  -> SCF convergence          0.1000000E-05 Eh   :
          :  -> wf. convergence          0.1000000E-03 e    :
          :  Broyden damping             0.4000000          :
          :  net charge                          0          :
          :  unpaired electrons                  0          :
          ...................................................

 iter      E             dE          RMSdq      gap      omega  full diag
   1    -49.4740572 -0.494741E+02  0.121E-04    1.92       0.0  T
   2    -49.4740572 -0.369056E-10  0.861E-05    1.92     227.7  T
   3    -49.4740572 -0.120437E-10  0.629E-05    1.92     311.6  T

   *** convergence criteria satisfied after 3 iterations ***

         #    Occupation            Energy/Eh            Energy/eV
      -------------------------------------------------------------
         1        2.0000           -1.0599384             -28.8424
       ...           ...                  ...                  ...
        37        2.0000           -0.4487290             -12.2105
        38        2.0000           -0.4380321             -11.9195
        39        2.0000           -0.4228950             -11.5076
        40        2.0000           -0.4190286             -11.4023
        41        2.0000           -0.4129185             -11.2361
        42        2.0000           -0.4046919             -11.0122
        43        2.0000           -0.3796388             -10.3305 (HOMO)
        44                         -0.3091537              -8.4125 (LUMO)
        45                         -0.2840318              -7.7289
        46                         -0.2471243              -6.7246
        47                         -0.2379205              -6.4741
        48                         -0.2082743              -5.6674
       ...                                ...                  ...
        82                          0.6875350              18.7088
      -------------------------------------------------------------
                  HL-Gap            0.0704850 Eh            1.9180 eV
             Fermi-level           -0.3443963 Eh           -9.3715 eV

 SCC (total)                   0 d,  0 h,  0 min,  0.011 sec
 SCC setup                      ...        0 min,  0.000 sec (  1.259%)
 Dispersion                     ...        0 min,  0.000 sec (  0.887%)
 classical contributions        ...        0 min,  0.000 sec (  0.147%)
 integral evaluation            ...        0 min,  0.001 sec ( 10.058%)
 iterations                     ...        0 min,  0.003 sec ( 25.372%)
 molecular gradient             ...        0 min,  0.007 sec ( 61.132%)
 printout                       ...        0 min,  0.000 sec (  1.008%)

         :::::::::::::::::::::::::::::::::::::::::::::::::::::
         ::                     SUMMARY                     ::
         :::::::::::::::::::::::::::::::::::::::::::::::::::::
         :: total energy             -48.821298827635 Eh    ::
         :: gradient norm              0.000567203597 Eh/a0 ::
         :: HOMO-LUMO gap              1.917995354880 eV    ::
         ::.................................................::
         :: SCC energy               -49.474212439093 Eh    ::
         :: -> isotropic ES            0.065357717248 Eh    ::
         :: -> anisotropic ES          0.003401747661 Eh    ::
         :: -> anisotropic XC          0.025198017680 Eh    ::
         :: -> dispersion             -0.027862947476 Eh    ::
         :: repulsion energy           0.652913611457 Eh    ::
         :: add. restraining           0.000000000000 Eh    ::
         :: total charge              -0.000000000000 e     ::
         :::::::::::::::::::::::::::::::::::::::::::::::::::::

           -------------------------------------------------
          |                Property Printout                |
           -------------------------------------------------

    * Orbital Energies and Occupations

         #    Occupation            Energy/Eh            Energy/eV
      -------------------------------------------------------------
         1        2.0000           -1.0599384             -28.8424
       ...           ...                  ...                  ...
        31        2.0000           -0.4893193             -13.3151
        32        2.0000           -0.4791138             -13.0373
        33        2.0000           -0.4751709             -12.9301
        34        2.0000           -0.4618004             -12.5662
        35        2.0000           -0.4584474             -12.4750
        36        2.0000           -0.4515167             -12.2864
        37        2.0000           -0.4487290             -12.2105
        38        2.0000           -0.4380321             -11.9195
        39        2.0000           -0.4228950             -11.5076
        40        2.0000           -0.4190286             -11.4023
        41        2.0000           -0.4129185             -11.2361
        42        2.0000           -0.4046919             -11.0122
        43        2.0000           -0.3796388             -10.3305 (HOMO)
        44                         -0.3091537              -8.4125 (LUMO)
        45                         -0.2840318              -7.7289
        46                         -0.2471243              -6.7246
        47                         -0.2379205              -6.4741
        48                         -0.2082743              -5.6674
        49                         -0.1430922              -3.8937
        50                         -0.1373813              -3.7383
        51                         -0.0990430              -2.6951
        52                          0.0099015               0.2694
        53                          0.0151975               0.4135
        54                          0.0152410               0.4147
       ...                                ...                  ...
        82                          0.6875350              18.7088
      -------------------------------------------------------------
                  HL-Gap            0.0704850 Eh            1.9180 eV
             Fermi-level           -0.3443963 Eh           -9.3715 eV

     #   Z          covCN         q      C6AA      α(0)
     1   7 N        1.842    -0.233    26.951     7.694
     2   6 C        2.976     0.116    25.438     8.273
     3   6 C        2.910    -0.048    29.196     8.860
     4   6 C        2.984     0.086    26.074     8.376
     5   7 N        1.839    -0.218    26.586     7.641
     6   6 C        2.911     0.153    24.682     8.146
     7   6 C        2.696     0.353    21.000     7.500
     8   8 O        0.856    -0.368    21.055     6.152
     9   8 O        1.660    -0.379    20.452     6.105
    10   6 C        2.981     0.003    27.942     8.671
    11   6 C        2.919    -0.036    28.895     8.815
    12   6 C        2.926    -0.037    28.932     8.821
    13   6 C        2.997     0.019    27.564     8.612
    14   6 C        2.892     0.091    25.977     8.356
    15   6 C        2.965    -0.037    28.912     8.820
    16  17 Cl       0.970    -0.172   104.554    15.643
    17   6 C        3.758    -0.112    22.698     6.792
    18   1 H        0.926     0.064     2.153     2.295
    19   1 H        0.925     0.059     2.209     2.324
    20   1 H        0.804     0.335     0.626     1.242
    21   1 H        0.926     0.047     2.353     2.399
    22   1 H        0.926     0.050     2.315     2.379
    23   1 H        0.926     0.082     1.962     2.191
    24   1 H        0.925     0.065     2.136     2.286
    25   1 H        0.925     0.065     2.142     2.289
    26   1 H        0.925     0.051     2.308     2.376

 Mol. C6AA /au·bohr⁶  :      10771.443348
 Mol. C8AA /au·bohr⁸  :     281091.532320
 Mol. α(0) /au        :        163.059682


Wiberg/Mayer (AO) data.
largest (>0.10) Wiberg bond orders for each atom

 ---------------------------------------------------------------------------
     #   Z sym  total        # sym  WBO       # sym  WBO       # sym  WBO
 ---------------------------------------------------------------------------
     1   7 N    3.067 --     6 C    1.440     2 C    1.378
     2   6 C    3.974 --     1 N    1.378     3 C    1.356    10 C    1.065
     3   6 C    3.987 --     4 C    1.418     2 C    1.356    18 H    0.961
                             6 C    0.105
     4   6 C    3.979 --     3 C    1.418     5 N    1.386     7 C    0.969
     5   7 N    3.060 --     6 C    1.432     4 C    1.386
     6   6 C    3.963 --     1 N    1.440     5 N    1.432    19 H    0.954
                             3 C    0.105
     7   6 C    3.920 --     8 O    1.783     9 O    1.120     4 C    0.969
     8   8 O    2.075 --     7 C    1.783     9 O    0.180
     9   8 O    2.194 --     7 C    1.120    20 H    0.864     8 O    0.180
    10   6 C    3.988 --    11 C    1.376    15 C    1.366     2 C    1.065
    11   6 C    3.991 --    12 C    1.455    10 C    1.376    21 H    0.965
    12   6 C    3.989 --    11 C    1.455    13 C    1.402    22 H    0.966
    13   6 C    3.978 --    12 C    1.402    14 C    1.354    17 C    1.035
    14   6 C    3.917 --    15 C    1.436    13 C    1.354    16 Cl   0.974
    15   6 C    3.986 --    14 C    1.436    10 C    1.366    23 H    0.960
    16  17 Cl   1.115 --    14 C    0.974
    17   6 C    3.993 --    13 C    1.035    26 H    0.984    24 H    0.966
                            25 H    0.964
    18   1 H    0.996 --     3 C    0.961
    19   1 H    0.996 --     6 C    0.954
    20   1 H    0.887 --     9 O    0.864
    21   1 H    0.997 --    11 C    0.965
    22   1 H    0.997 --    12 C    0.966
    23   1 H    0.993 --    15 C    0.960
    24   1 H    0.994 --    17 C    0.966
    25   1 H    0.994 --    17 C    0.964
    26   1 H    0.997 --    17 C    0.984
 ---------------------------------------------------------------------------

Topologies differ in total number of bonds
Writing topology from bond orders to xtbtopo.mol

molecular dipole:
                 x           y           z       tot (Debye)
 q only:        0.692      -1.592      -0.444
   full:        0.655      -1.912      -0.467       5.273
molecular quadrupole (traceless):
                xx          xy          yy          xz          yz          zz
 q only:       -9.361      -3.505      14.276      -6.486       4.916      -4.915
  q+dip:       -8.101       0.427      14.060      -3.832       7.344      -5.959
   full:      -10.154       1.386      12.450      -4.841       4.891      -2.295

           -------------------------------------------------
          |                Geometry Summary                 |
           -------------------------------------------------

      molecular mass/u    :      248.6654514
   center of mass at/Å    :        1.7398517      -1.4686981       0.2354864
  moments of inertia/u·Å² :        0.4477257E+03   0.2757306E+04   0.3165202E+04
rotational constants/cm⁻¹ :        0.3765169E-01   0.6113805E-02   0.5325927E-02

 * 24 selected distances

     #   Z          #   Z                                           value/Å
     1   7 N        2   6 C                                       1.3343996
     2   6 C        3   6 C                                       1.4001565
     3   6 C        4   6 C                                       1.3888619
     4   6 C        5   7 N                                       1.3303574
     1   7 N        6   6 C                                       1.3170371
     5   7 N        6   6 C                                       1.3177562
     7   6 C        8   8 O                                       1.1983455
     7   6 C        9   8 O                                       1.3434024
    10   6 C       11   6 C                                       1.3934411
    11   6 C       12   6 C                                       1.3814083
    12   6 C       13   6 C                                       1.3895931
    13   6 C       14   6 C                                       1.3957567
    10   6 C       15   6 C                                       1.3951595
    14   6 C       15   6 C                                       1.3797228
    14   6 C       16  17 Cl                                      1.7305520 (max)
     3   6 C       18   1 H                                       1.0761439
     6   6 C       19   1 H                                       1.0823787
     9   8 O       20   1 H                                       0.9707668 (min)
    11   6 C       21   1 H                                       1.0784966
    12   6 C       22   1 H                                       1.0800245
    15   6 C       23   1 H                                       1.0779400
    17   6 C       24   1 H                                       1.0889891
    17   6 C       25   1 H                                       1.0894573
    17   6 C       26   1 H                                       1.0863551

 * 6 distinct bonds (by element types)

   Z      Z             #   av. dist./Å        max./Å        min./Å
   1 H    6 C           8     1.0824731     1.0894573     1.0761439
   6 C    6 C           8     1.3905125     1.4001565     1.3797228
   6 C    7 N           4     1.3248876     1.3343996     1.3170371
   1 H    8 O           1     0.9707668     0.9707668     0.9707668
   6 C    8 O           2     1.2708740     1.3434024     1.1983455
   6 C   17 Cl          1     1.7305520     1.7305520     1.7305520


optimized geometry written to: xtbopt.xyz


           -------------------------------------------------
          | TOTAL ENERGY              -48.821298827635 Eh   |
          | GRADIENT NORM               0.000567203597 Eh/α |
          | HOMO-LUMO GAP               1.917995354880 eV   |
           -------------------------------------------------

------------------------------------------------------------------------
 * finished run on 2024/12/17 at 14:07:59.436     
------------------------------------------------------------------------
 total:
 * wall-time:     0 d,  0 h,  0 min,  0.335 sec
 *  cpu-time:     0 d,  0 h,  0 min,  2.627 sec
 * ratio c/w:     7.852 speedup
 SCF:
 * wall-time:     0 d,  0 h,  0 min,  0.021 sec
 *  cpu-time:     0 d,  0 h,  0 min,  0.170 sec
 * ratio c/w:     7.936 speedup
 ANC optimizer:
 * wall-time:     0 d,  0 h,  0 min,  0.295 sec
 *  cpu-time:     0 d,  0 h,  0 min,  2.340 sec
 * ratio c/w:     7.935 speedup

