26
 energy: -48.997805166487 gnorm: 0.000890392184 xtb: 6.7.1 (edcfbbe)
N            1.16466758747192        0.36685643712292        0.51426532668650
C            1.07693114747552       -0.91306404230863        0.14750955595275
C           -0.17302005929590       -1.47746148263244       -0.13465191626673
C           -1.27711361058110       -0.64020303047058       -0.03517895133096
N           -1.16634455727999        0.63798026137437        0.31610110742374
C            0.05139051580077        1.06730110207184        0.57922121853458
C           -2.65943102604017       -1.13083684687659       -0.32917508835210
O           -3.62599232372971       -0.43780411456113       -0.47498479391538
O           -2.70704039661833       -2.47054036550037       -0.42498473382008
C            2.33009085975991       -1.66844350114181        0.07849457601559
C            2.44336255785692       -2.86741332130393       -0.62311881804133
C            3.64581486657643       -3.54742459663993       -0.66070983779433
C            4.77300053279927       -3.07011852141162       -0.00358642716981
C            4.63728553247936       -1.86526916301031        0.68251334294162
C            3.45469013663967       -1.16195330538724        0.73051282756499
F            5.71377552492288       -1.36487476577838        1.32657477930245
C            6.07546889657901       -3.80181038729711       -0.01187102511133
H           -0.29457198471338       -2.51279990480101       -0.40180114675523
H            0.14679258663984        2.10316969848271        0.87872005509222
H           -3.61564911796635       -2.75330622701686       -0.61486473080527
H            1.59889518550720       -3.26620117476170       -1.16294724549993
H            3.71769049426137       -4.47255557476281       -1.21357238665838
H            3.39116763370959       -0.22952127794159        1.26711302265087
H            6.89924926148897       -3.10998117003847       -0.17732293551927
H            6.23879376236078       -4.27898767801687        0.95491804056934
H            6.08580599389586       -4.56693704739214       -0.78312381569401
