      -----------------------------------------------------------      
     |                   =====================                   |     
     |                           x T B                           |     
     |                   =====================                   |     
     |                         S. Grimme                         |     
     |          Mulliken Center for Theoretical Chemistry        |     
     |                    University of Bonn                     |     
      -----------------------------------------------------------      

   * xtb version 6.7.1 (edcfbbe) compiled by 'conda@3ef47c1a292c' on 2024-11-25

   xtb is free software: you can redistribute it and/or modify it under
   the terms of the GNU Lesser General Public License as published by
   the Free Software Foundation, either version 3 of the License, or
   (at your option) any later version.
   
   xtb is distributed in the hope that it will be useful,
   but WITHOUT ANY WARRANTY; without even the implied warranty of
   MERCHANTABILITY or FITNESS FOR A PARTICULAR PURPOSE.  See the
   GNU Lesser General Public License for more details.
   
   Cite this work as:
   * C. Bannwarth, E. Caldeweyher, S. Ehlert, A. Hansen, P. Pracht,
     J. Seibert, S. Spicher, S. Grimme, WIREs Comput. Mol. Sci., 2020, 11,
     e01493. DOI: 10.1002/wcms.1493
   
   for GFN2-xTB:
   * C. Bannwarth, S. Ehlert and S. Grimme., J. Chem. Theory Comput., 2019,
     15, 1652-1671. DOI: 10.1021/acs.jctc.8b01176
   for GFN1-xTB:
   * S. Grimme, C. Bannwarth, P. Shushkov, J. Chem. Theory Comput., 2017,
     13, 1989-2009. DOI: 10.1021/acs.jctc.7b00118
   for GFN0-xTB:
   * P. Pracht, E. Caldeweyher, S. Ehlert, S. Grimme, ChemRxiv, 2019, preprint.
     DOI: 10.26434/chemrxiv.8326202.v1
   for GFN-FF:
   * S. Spicher and S. Grimme, Angew. Chem. Int. Ed., 2020, 59, 15665-15673.
     DOI: 10.1002/anie.202004239
   
   for ALPB and GBSA implicit solvation:
   * S. Ehlert, M. Stahn, S. Spicher, S. Grimme, J. Chem. Theory Comput.,
     2021, 17, 4250-4261. DOI: 10.1021/acs.jctc.1c00471
   
   for ddCOSMO and CPCM-X implicit solvation:
   * M. Stahn, S. Ehlert, S. Grimme, J. Phys. Chem. A,
     2023, XX, XXXX-XXXX. DOI: 10.1021/acs.jpca.3c04382
   
   for DFT-D4:
   * E. Caldeweyher, C. Bannwarth and S. Grimme, J. Chem. Phys., 2017,
     147, 034112. DOI: 10.1063/1.4993215
   * E. Caldeweyher, S. Ehlert, A. Hansen, H. Neugebauer, S. Spicher,
     C. Bannwarth and S. Grimme, J. Chem. Phys., 2019, 150, 154122.
     DOI: 10.1063/1.5090222
   * E. Caldeweyher, J.-M. Mewes, S. Ehlert and S. Grimme, Phys. Chem. Chem. Phys.
     2020, 22, 8499-8512. DOI: 10.1039/D0CP00502A
   
   for sTDA-xTB:
   * S. Grimme and C. Bannwarth, J. Chem. Phys., 2016, 145, 054103.
     DOI: 10.1063/1.4959605
   
   in the mass-spec context:
   * V. Asgeirsson, C. Bauer and S. Grimme, Chem. Sci., 2017, 8, 4879.
     DOI: 10.1039/c7sc00601b
   * J. Koopman and S. Grimme, ACS Omega 2019, 4, 12, 15120-15133.
     DOI: 10.1021/acsomega.9b02011
   
   for metadynamics refer to:
   * S. Grimme, J. Chem. Theory Comput., 2019, 155, 2847-2862
     DOI: 10.1021/acs.jctc.9b00143
   
   for SPH calculations refer to:
   * S. Spicher and S. Grimme, J. Chem. Theory Comput., 2021, 17, 1701-1714
     DOI: 10.1021/acs.jctc.0c01306
   
   for ONIOM refer to:
   * C. Plett, A. Katbashev, S. Ehlert, S. Grimme, M. Bursch,
     Phys. Chem. Chem. Phys., 2023, 25, 17860-17868. DOI: 10.1039/D3CP02178E
   
   for DIPRO refer to:
   * J. Kohn, N. Gildemeister, S. Grimme, D. Fazzi, A. Hansen,
     J. Chem. Phys., 2023, just accepted.
   
   for PTB refer to:
   * S. Grimme, M. Mueller, A. Hansen, J. Chem. Phys., 2023, 158, 124111.
     DOI: 10.1063/5.0137838
   
   with help from (in alphabetical order)
   P. Atkinson, C. Bannwarth, F. Bohle, G. Brandenburg, E. Caldeweyher
   M. Checinski, S. Dohm, S. Ehlert, S. Ehrlich, I. Gerasimov, C. Hölzer
   A. Katbashev, J. Kohn, J. Koopman, C. Lavigne, S. Lehtola, F. März, M. Müller,
   F. Musil, H. Neugebauer, J. Pisarek, C. Plett, P. Pracht, F. Pultar,
   J. Seibert, P. Shushkov, S. Spicher, M. Stahn, M. Steiner, T. Strunk,
   J. Stückrath, T. Rose, and J. Unsleber
   
 * started run on 2024/12/17 at 14:08:27.491     
   ID    Z sym.   atoms
    1    7 N      1, 5
    2    6 C      2-4, 6, 7, 10-15, 17
    3    8 O      8, 9
    4    9 F      16
    5    1 H      18-26

           -------------------------------------------------
          |                Calculation Setup                |
           -------------------------------------------------

          program call               : xtb K010.xyz --opt --namespace K010
          calculation namespace      : K010
          coordinate file            : K010.xyz
          omp threads                :                     8


           -------------------------------------------------
          |                 G F N 2 - x T B                 |
           -------------------------------------------------

        Reference                      10.1021/acs.jctc.8b01176
      * Hamiltonian:
        H0-scaling (s, p, d)           1.850000    2.230000    2.230000
        zeta-weighting                 0.500000
      * Dispersion:
        s8                             2.700000
        a1                             0.520000
        a2                             5.000000
        s9                             5.000000
      * Repulsion:
        kExp                           1.500000    1.000000
        rExp                           1.000000
      * Coulomb:
        alpha                          2.000000
        third order                    shell-resolved
        anisotropic                    true
        a3                             3.000000
        a5                             4.000000
        cn-shift                       1.200000
        cn-exp                         4.000000
        max-rad                        5.000000


          ...................................................
          :                      SETUP                      :
          :.................................................:
          :  # basis functions                  77          :
          :  # atomic orbitals                  77          :
          :  # shells                           43          :
          :  # electrons                        86          :
          :  max. iterations                   250          :
          :  Hamiltonian                  GFN2-xTB          :
          :  restarted?                      false          :
          :  GBSA solvation                  false          :
          :  PC potential                    false          :
          :  electronic temp.          300.0000000     K    :
          :  accuracy                    1.0000000          :
          :  -> integral cutoff          0.2500000E+02      :
          :  -> integral neglect         0.1000000E-07      :
          :  -> SCF convergence          0.1000000E-05 Eh   :
          :  -> wf. convergence          0.1000000E-03 e    :
          :  Broyden damping             0.4000000          :
          :  net charge                          0          :
          :  unpaired electrons                  0          :
          ...................................................

 iter      E             dE          RMSdq      gap      omega  full diag
   1    -49.5467888 -0.495468E+02  0.476E+00    2.26       0.0  T
   2    -49.5978785 -0.510897E-01  0.287E+00    2.23       1.0  T
   3    -49.5967868  0.109165E-02  0.139E+00    1.98       1.0  T
   4    -49.6089342 -0.121474E-01  0.290E-01    1.89       1.0  T
   5    -49.6103944 -0.146017E-02  0.108E-01    1.87       1.0  T
   6    -49.6105451 -0.150671E-03  0.419E-02    1.86       1.0  T
   7    -49.6105541 -0.906335E-05  0.203E-02    1.86       1.0  T
   8    -49.6105609 -0.673424E-05  0.717E-03    1.87       2.7  T
   9    -49.6105612 -0.330676E-06  0.275E-03    1.87       7.1  T
  10    -49.6105613 -0.566285E-07  0.131E-03    1.87      15.0  T
  11    -49.6105613 -0.144946E-07  0.418E-04    1.87      46.9  T
  12    -49.6105613 -0.564626E-09  0.227E-04    1.87      86.2  T

   *** convergence criteria satisfied after 12 iterations ***

         #    Occupation            Energy/Eh            Energy/eV
      -------------------------------------------------------------
         1        2.0000           -0.8244555             -22.4346
       ...           ...                  ...                  ...
        37        2.0000           -0.4569610             -12.4345
        38        2.0000           -0.4461827             -12.1412
        39        2.0000           -0.4403528             -11.9826
        40        2.0000           -0.4236703             -11.5287
        41        2.0000           -0.4202038             -11.4343
        42        2.0000           -0.4126136             -11.2278
        43        2.0000           -0.3850475             -10.4777 (HOMO)
        44                         -0.3164920              -8.6122 (LUMO)
        45                         -0.2829452              -7.6993
        46                         -0.2493719              -6.7858
        47                         -0.2460062              -6.6942
        48                         -0.2206229              -6.0035
       ...                                ...                  ...
        77                          0.6354540              17.2916
      -------------------------------------------------------------
                  HL-Gap            0.0685555 Eh            1.8655 eV
             Fermi-level           -0.3507698 Eh           -9.5449 eV

 SCC (total)                   0 d,  0 h,  0 min,  0.017 sec
 SCC setup                      ...        0 min,  0.000 sec (  0.648%)
 Dispersion                     ...        0 min,  0.000 sec (  1.459%)
 classical contributions        ...        0 min,  0.000 sec (  0.246%)
 integral evaluation            ...        0 min,  0.001 sec (  7.322%)
 iterations                     ...        0 min,  0.013 sec ( 73.903%)
 molecular gradient             ...        0 min,  0.003 sec ( 15.426%)
 printout                       ...        0 min,  0.000 sec (  0.905%)

         :::::::::::::::::::::::::::::::::::::::::::::::::::::
         ::                     SUMMARY                     ::
         :::::::::::::::::::::::::::::::::::::::::::::::::::::
         :: total energy             -48.990347727748 Eh    ::
         :: gradient norm              0.076023792303 Eh/a0 ::
         :: HOMO-LUMO gap              1.865491381256 eV    ::
         ::.................................................::
         :: SCC energy               -49.610669923863 Eh    ::
         :: -> isotropic ES            0.072683460014 Eh    ::
         :: -> anisotropic ES          0.005448479606 Eh    ::
         :: -> anisotropic XC          0.022180707600 Eh    ::
         :: -> dispersion             -0.025658261032 Eh    ::
         :: repulsion energy           0.620322196115 Eh    ::
         :: add. restraining           0.000000000000 Eh    ::
         :: total charge               0.000000000000 e     ::
         :::::::::::::::::::::::::::::::::::::::::::::::::::::

      ----------------------------------------------------------- 
     |                   =====================                   |
     |                        A N C O P T                        |
     |                   =====================                   |
     |               Approximate Normal Coordinate               |
     |                Rational Function Optimizer                |
      ----------------------------------------------------------- 
      ----------------------------------------------------------- 
     |                   =====================                   |
     |                        A N C O P T                        |
     |                   =====================                   |
     |               Approximate Normal Coordinate               |
     |                Rational Function Optimizer                |
      ----------------------------------------------------------- 

          ...................................................
          :                      SETUP                      :
          :.................................................:
          :   optimization level            normal          :
          :   max. optcycles                   200          :
          :   ANC micro-cycles                  20          :
          :   degrees of freedom                72          :
          :.................................................:
          :   RF solver                   davidson          :
          :   write xtbopt.log                true          :
          :   linear?                        false          :
          :   energy convergence         0.5000000E-05 Eh   :
          :   grad. convergence          0.1000000E-02 Eh/α :
          :   maxmium RF displ.          1.0000000          :
          :   Hlow (freq-cutoff)         0.1000000E-01      :
          :   Hmax (freq-cutoff)         5.0000000          :
          :   S6 in model hess.         20.0000000          :
          ...................................................

generating ANC from exact Hessian ...
Using Lindh-Hessian (1995)
 Shifting diagonal of input Hessian by    9.1311816102526699E-003
 Lowest  eigenvalues of input Hessian
    0.000000    0.000000    0.000000    0.000000    0.000000    0.000000
    0.010000    0.010357    0.011206    0.014224    0.015355    0.017726
    0.019866    0.021383    0.023890    0.027145    0.027856    0.030741
 Highest eigenvalues
    1.950524    1.979529    2.052105    2.072987    2.122142    2.331076


........................................................................
.............................. CYCLE    1 ..............................
........................................................................

 iter      E             dE          RMSdq      gap      omega  full diag
   1    -49.6105613 -0.496106E+02  0.738E-05    1.87       0.0  T
   2    -49.6105613 -0.122924E-10  0.462E-05    1.87     424.4  T
   3    -49.6105613  0.497380E-13  0.259E-05    1.87     758.1  T
     SCC iter.                  ...        0 min,  0.003 sec
     gradient                   ...        0 min,  0.003 sec
 * total energy  :   -48.9903477 Eh     change       -0.5196483E-09 Eh
   gradient norm :     0.0760248 Eh/α   predicted     0.0000000E+00 (-100.00%)
   displ. norm   :     0.1645700 α      lambda       -0.7079108E-02
   maximum displ.:     0.0630227 α      in ANC's #36, #13, #29, ...

........................................................................
.............................. CYCLE    2 ..............................
........................................................................

 iter      E             dE          RMSdq      gap      omega  full diag
   1    -49.6440265 -0.496440E+02  0.162E-01    1.92       0.0  T
   2    -49.6440996 -0.730849E-04  0.107E-01    1.92       1.0  T
   3    -49.6440922  0.742170E-05  0.528E-02    1.91       1.0  T
   4    -49.6441243 -0.321833E-04  0.129E-02    1.91       1.5  T
   5    -49.6441264 -0.205132E-05  0.377E-03    1.91       5.2  T
   6    -49.6441265 -0.122012E-06  0.203E-03    1.91       9.7  T
   7    -49.6441265 -0.310793E-07  0.831E-04    1.91      23.6  T
   8    -49.6441266 -0.123717E-07  0.275E-04    1.91      71.2  T
     SCC iter.                  ...        0 min,  0.010 sec
     gradient                   ...        0 min,  0.003 sec
 * total energy  :   -48.9950788 Eh     change       -0.4731050E-02 Eh
   gradient norm :     0.0261561 Eh/α   predicted    -0.3635673E-02 ( -23.15%)
   displ. norm   :     0.1480947 α      lambda       -0.1650044E-02
   maximum displ.:     0.0637274 α      in ANC's #2, #29, #3, ...

........................................................................
.............................. CYCLE    3 ..............................
........................................................................

 iter      E             dE          RMSdq      gap      omega  full diag
   1    -49.6567578 -0.496568E+02  0.109E-01    1.93       0.0  T
   2    -49.6567788 -0.210216E-04  0.690E-02    1.93       1.0  T
   3    -49.6567696  0.916184E-05  0.349E-02    1.93       1.0  T
   4    -49.6567879 -0.182433E-04  0.655E-03    1.93       3.0  T
   5    -49.6567883 -0.460865E-06  0.252E-03    1.93       7.8  T
   6    -49.6567884 -0.479281E-07  0.130E-03    1.93      15.1  T
   7    -49.6567884 -0.138155E-07  0.523E-04    1.93      37.5  T
   8    -49.6567884 -0.438161E-08  0.212E-04    1.93      92.3  T
     SCC iter.                  ...        0 min,  0.007 sec
     gradient                   ...        0 min,  0.003 sec
 * total energy  :   -48.9960499 Eh     change       -0.9710908E-03 Eh
   gradient norm :     0.0079221 Eh/α   predicted    -0.8432290E-03 ( -13.17%)
   displ. norm   :     0.1213006 α      lambda       -0.2934891E-03
   maximum displ.:     0.0764157 α      in ANC's #2, #3, #4, ...

........................................................................
.............................. CYCLE    4 ..............................
........................................................................

 iter      E             dE          RMSdq      gap      omega  full diag
   1    -49.6566350 -0.496566E+02  0.635E-02    1.94       0.0  T
   2    -49.6566372 -0.224501E-05  0.371E-02    1.93       1.0  T
   3    -49.6566345  0.267707E-05  0.137E-02    1.93       1.4  T
   4    -49.6566381 -0.352678E-05  0.234E-03    1.93       8.4  T
   5    -49.6566381 -0.376725E-07  0.118E-03    1.93      16.7  T
   6    -49.6566381 -0.116139E-07  0.512E-04    1.93      38.3  T
   7    -49.6566381 -0.182929E-08  0.216E-04    1.93      90.9  T
     SCC iter.                  ...        0 min,  0.006 sec
     gradient                   ...        0 min,  0.003 sec
 * total energy  :   -48.9962754 Eh     change       -0.2255617E-03 Eh
   gradient norm :     0.0062621 Eh/α   predicted    -0.1489077E-03 ( -33.98%)
   displ. norm   :     0.2206437 α      lambda       -0.3087218E-03
   maximum displ.:     0.1448409 α      in ANC's #2, #3, #4, ...

........................................................................
.............................. CYCLE    5 ..............................
........................................................................

 iter      E             dE          RMSdq      gap      omega  full diag
   1    -49.6543030 -0.496543E+02  0.109E-01    1.94       0.0  T
   2    -49.6543072 -0.420422E-05  0.636E-02    1.94       1.0  T
   3    -49.6543025  0.475060E-05  0.179E-02    1.94       1.1  T
   4    -49.6543087 -0.625872E-05  0.323E-03    1.93       6.1  T
   5    -49.6543088 -0.592867E-07  0.165E-03    1.94      11.9  T
   6    -49.6543088 -0.238092E-07  0.644E-04    1.94      30.4  T
   7    -49.6543088 -0.359445E-08  0.283E-04    1.94      69.4  T
     SCC iter.                  ...        0 min,  0.006 sec
     gradient                   ...        0 min,  0.003 sec
 * total energy  :   -48.9964850 Eh     change       -0.2095711E-03 Eh
   gradient norm :     0.0046764 Eh/α   predicted    -0.1618764E-03 ( -22.76%)
   displ. norm   :     0.1874392 α      lambda       -0.1488795E-03
   maximum displ.:     0.1275924 α      in ANC's #2, #3, #1, ...

........................................................................
.............................. CYCLE    6 ..............................
........................................................................

 iter      E             dE          RMSdq      gap      omega  full diag
   1    -49.6532629 -0.496533E+02  0.914E-02    1.94       0.0  T
   2    -49.6532647 -0.179298E-05  0.532E-02    1.94       1.0  T
   3    -49.6532626  0.200975E-05  0.108E-02    1.94       1.8  T
   4    -49.6532653 -0.268378E-05  0.221E-03    1.94       8.9  T
   5    -49.6532654 -0.248533E-07  0.107E-03    1.94      18.3  T
   6    -49.6532654 -0.999812E-08  0.396E-04    1.94      49.6  T
   7    -49.6532654 -0.198729E-08  0.173E-04    1.94     113.2  T
     SCC iter.                  ...        0 min,  0.006 sec
     gradient                   ...        0 min,  0.003 sec
 * total energy  :   -48.9966045 Eh     change       -0.1195353E-03 Eh
   gradient norm :     0.0049336 Eh/α   predicted    -0.7707015E-04 ( -35.53%)
   displ. norm   :     0.2221920 α      lambda       -0.1752679E-03
   maximum displ.:     0.1469470 α      in ANC's #2, #3, #1, ...

........................................................................
.............................. CYCLE    7 ..............................
........................................................................

 iter      E             dE          RMSdq      gap      omega  full diag
   1    -49.6531300 -0.496531E+02  0.108E-01    1.94       0.0  T
   2    -49.6531317 -0.167006E-05  0.627E-02    1.94       1.0  T
   3    -49.6531300  0.167592E-05  0.912E-03    1.94       2.1  T
   4    -49.6531323 -0.233998E-05  0.228E-03    1.94       8.6  T
   5    -49.6531324 -0.251418E-07  0.102E-03    1.94      19.3  T
   6    -49.6531324 -0.100615E-07  0.389E-04    1.94      50.4  T
   7    -49.6531324 -0.241066E-08  0.164E-04    1.94     119.3  T
     SCC iter.                  ...        0 min,  0.006 sec
     gradient                   ...        0 min,  0.003 sec
 * total energy  :   -48.9967557 Eh     change       -0.1511225E-03 Eh
   gradient norm :     0.0058411 Eh/α   predicted    -0.9196061E-04 ( -39.15%)
   displ. norm   :     0.3324040 α      lambda       -0.2617406E-03
   maximum displ.:     0.2193263 α      in ANC's #2, #3, #1, ...

........................................................................
.............................. CYCLE    8 ..............................
........................................................................

 iter      E             dE          RMSdq      gap      omega  full diag
   1    -49.6533182 -0.496533E+02  0.159E-01    1.93       0.0  T
   2    -49.6533211 -0.293646E-05  0.925E-02    1.93       1.0  T
   3    -49.6533189  0.223868E-05  0.109E-02    1.93       1.8  T
   4    -49.6533224 -0.344610E-05  0.322E-03    1.93       6.1  T
   5    -49.6533224 -0.452693E-07  0.134E-03    1.93      14.6  T
   6    -49.6533224 -0.234209E-07  0.504E-04    1.93      38.9  T
   7    -49.6533224 -0.330177E-08  0.221E-04    1.93      88.6  T
     SCC iter.                  ...        0 min,  0.006 sec
     gradient                   ...        0 min,  0.003 sec
 * total energy  :   -48.9969743 Eh     change       -0.2186325E-03 Eh
   gradient norm :     0.0069826 Eh/α   predicted    -0.1453365E-03 ( -33.52%)
   displ. norm   :     0.4324182 α      lambda       -0.2961828E-03
   maximum displ.:     0.2859519 α      in ANC's #2, #3, #1, ...

........................................................................
.............................. CYCLE    9 ..............................
........................................................................

 iter      E             dE          RMSdq      gap      omega  full diag
   1    -49.6528217 -0.496528E+02  0.204E-01    1.93       0.0  T
   2    -49.6528259 -0.417700E-05  0.119E-01    1.93       1.0  T
   3    -49.6528224  0.347610E-05  0.145E-02    1.93       1.3  T
   4    -49.6528277 -0.536680E-05  0.400E-03    1.93       4.9  T
   5    -49.6528278 -0.442650E-07  0.173E-03    1.93      11.3  T
   6    -49.6528278 -0.400686E-07  0.602E-04    1.93      32.6  T
   7    -49.6528278 -0.384964E-08  0.283E-04    1.93      69.3  T
     SCC iter.                  ...        0 min,  0.006 sec
     gradient                   ...        0 min,  0.003 sec
 * total energy  :   -48.9972082 Eh     change       -0.2339043E-03 Eh
   gradient norm :     0.0068678 Eh/α   predicted    -0.1757841E-03 ( -24.85%)
   displ. norm   :     0.4343806 α      lambda       -0.2594376E-03
   maximum displ.:     0.2935379 α      in ANC's #2, #3, #1, ...

........................................................................
.............................. CYCLE   10 ..............................
........................................................................

 iter      E             dE          RMSdq      gap      omega  full diag
   1    -49.6528818 -0.496529E+02  0.204E-01    1.92       0.0  T
   2    -49.6528855 -0.371133E-05  0.119E-01    1.92       1.0  T
   3    -49.6528820  0.354410E-05  0.150E-02    1.92       1.3  T
   4    -49.6528874 -0.537059E-05  0.385E-03    1.92       5.1  T
   5    -49.6528874 -0.228597E-07  0.173E-03    1.92      11.3  T
   6    -49.6528874 -0.414650E-07  0.562E-04    1.92      34.9  T
   7    -49.6528874 -0.305668E-08  0.278E-04    1.92      70.7  T
     SCC iter.                  ...        0 min,  0.006 sec
     gradient                   ...        0 min,  0.003 sec
 * total energy  :   -48.9974005 Eh     change       -0.1922839E-03 Eh
   gradient norm :     0.0052426 Eh/α   predicted    -0.1541964E-03 ( -19.81%)
   displ. norm   :     0.3478255 α      lambda       -0.1843961E-03
   maximum displ.:     0.2366396 α      in ANC's #2, #3, #1, ...

........................................................................
.............................. CYCLE   11 ..............................
........................................................................

 iter      E             dE          RMSdq      gap      omega  full diag
   1    -49.6544099 -0.496544E+02  0.163E-01    1.92       0.0  T
   2    -49.6544118 -0.199046E-05  0.952E-02    1.92       1.0  T
   3    -49.6544084  0.345900E-05  0.127E-02    1.92       1.5  T
   4    -49.6544130 -0.466393E-05  0.290E-03    1.92       6.8  T
   5    -49.6544131 -0.730076E-08  0.122E-03    1.92      16.1  T
   6    -49.6544131 -0.193941E-07  0.391E-04    1.92      50.1  T
   7    -49.6544131 -0.151504E-08  0.194E-04    1.92     101.0  T
     SCC iter.                  ...        0 min,  0.006 sec
     gradient                   ...        0 min,  0.003 sec
 * total energy  :   -48.9975347 Eh     change       -0.1341893E-03 Eh
   gradient norm :     0.0034058 Eh/α   predicted    -0.1033547E-03 ( -22.98%)
   displ. norm   :     0.3589539 α      lambda       -0.1197310E-03
   maximum displ.:     0.2428112 α      in ANC's #2, #3, #1, ...

........................................................................
.............................. CYCLE   12 ..............................
........................................................................

 iter      E             dE          RMSdq      gap      omega  full diag
   1    -49.6536734 -0.496537E+02  0.166E-01    1.92       0.0  T
   2    -49.6536756 -0.225369E-05  0.970E-02    1.92       1.0  T
   3    -49.6536724  0.318694E-05  0.136E-02    1.92       1.4  T
   4    -49.6536768 -0.440386E-05  0.291E-03    1.92       6.7  T
   5    -49.6536768 -0.760903E-08  0.138E-03    1.92      14.3  T
   6    -49.6536769 -0.225171E-07  0.495E-04    1.92      39.6  T
   7    -49.6536769 -0.346999E-08  0.186E-04    1.92     105.2  T
     SCC iter.                  ...        0 min,  0.006 sec
     gradient                   ...        0 min,  0.003 sec
 * total energy  :   -48.9976208 Eh     change       -0.8612397E-04 Eh
   gradient norm :     0.0041869 Eh/α   predicted    -0.6757952E-04 ( -21.53%)
   displ. norm   :     0.2612101 α      lambda       -0.1206092E-03
   maximum displ.:     0.1730790 α      in ANC's #2, #1, #3, ...

........................................................................
.............................. CYCLE   13 ..............................
........................................................................

 iter      E             dE          RMSdq      gap      omega  full diag
   1    -49.6575449 -0.496575E+02  0.119E-01    1.92       0.0  T
   2    -49.6575464 -0.149677E-05  0.700E-02    1.92       1.0  T
   3    -49.6575410  0.544362E-05  0.141E-02    1.92       1.4  T
   4    -49.6575474 -0.648409E-05  0.212E-03    1.92       9.2  T
   5    -49.6575474 -0.134780E-07  0.127E-03    1.92      15.4  T
   6    -49.6575475 -0.127891E-07  0.347E-04    1.92      56.5  T
   7    -49.6575475 -0.124181E-08  0.147E-04    1.92     133.5  T
     SCC iter.                  ...        0 min,  0.006 sec
     gradient                   ...        0 min,  0.003 sec
 * total energy  :   -48.9976725 Eh     change       -0.5170912E-04 Eh
   gradient norm :     0.0048132 Eh/α   predicted    -0.6442339E-04 (  24.59%)
   displ. norm   :     0.3707456 α      lambda       -0.8519160E-04
   maximum displ.:     0.2492338 α      in ANC's #2, #1, #3, ...

........................................................................
.............................. CYCLE   14 ..............................
........................................................................

 iter      E             dE          RMSdq      gap      omega  full diag
   1    -49.6532643 -0.496533E+02  0.171E-01    1.92       0.0  T
   2    -49.6532678 -0.348802E-05  0.997E-02    1.92       1.0  T
   3    -49.6532616  0.623551E-05  0.200E-02    1.92       1.0  T
   4    -49.6532696 -0.800309E-05  0.302E-03    1.92       6.5  T
   5    -49.6532696 -0.181235E-07  0.162E-03    1.92      12.1  T
   6    -49.6532696 -0.144003E-07  0.580E-04    1.92      33.8  T
   7    -49.6532696 -0.339974E-08  0.225E-04    1.92      87.0  T
     SCC iter.                  ...        0 min,  0.007 sec
     gradient                   ...        0 min,  0.003 sec
 * total energy  :   -48.9977028 Eh     change       -0.3029257E-04 Eh
   gradient norm :     0.0048347 Eh/α   predicted    -0.4847384E-04 (  60.02%)
   displ. norm   :     0.0854287 α      lambda       -0.3467305E-04
   maximum displ.:     0.0578864 α      in ANC's #2, #3, #1, ...

........................................................................
.............................. CYCLE   15 ..............................
........................................................................

 iter      E             dE          RMSdq      gap      omega  full diag
   1    -49.6552491 -0.496552E+02  0.427E-02    1.92       0.0  T
   2    -49.6552497 -0.590307E-06  0.249E-02    1.92       1.0  T
   3    -49.6552487  0.100331E-05  0.836E-03    1.92       2.3  T
   4    -49.6552499 -0.127429E-05  0.957E-04    1.92      20.5  T
   5    -49.6552499 -0.370099E-08  0.484E-04    1.92      40.5  T
   6    -49.6552499 -0.136311E-08  0.199E-04    1.92      98.3  T
     SCC iter.                  ...        0 min,  0.012 sec
     gradient                   ...        0 min,  0.003 sec
 * total energy  :   -48.9977239 Eh     change       -0.2112700E-04 Eh
   gradient norm :     0.0023261 Eh/α   predicted    -0.1747371E-04 ( -17.29%)
   displ. norm   :     0.0745146 α      lambda       -0.2235679E-04
   maximum displ.:     0.0559463 α      in ANC's #1, #2, #38, ...

........................................................................
.............................. CYCLE   16 ..............................
........................................................................

 iter      E             dE          RMSdq      gap      omega  full diag
   1    -49.6559601 -0.496560E+02  0.321E-02    1.92       0.0  T
   2    -49.6559604 -0.297377E-06  0.190E-02    1.92       1.0  T
   3    -49.6559600  0.415726E-06  0.467E-03    1.92       4.2  T
   4    -49.6559606 -0.523604E-06  0.798E-04    1.92      24.6  T
   5    -49.6559606 -0.483566E-08  0.397E-04    1.92      49.5  T
     SCC iter.                  ...        0 min,  0.008 sec
     gradient                   ...        0 min,  0.005 sec
 * total energy  :   -48.9977398 Eh     change       -0.1587305E-04 Eh
   gradient norm :     0.0014082 Eh/α   predicted    -0.1124354E-04 ( -29.17%)
   displ. norm   :     0.2725721 α      lambda       -0.2502577E-04
   maximum displ.:     0.1919068 α      in ANC's #1, #2, #3, ...

........................................................................
.............................. CYCLE   17 ..............................
........................................................................

 iter      E             dE          RMSdq      gap      omega  full diag
   1    -49.6558954 -0.496559E+02  0.113E-01    1.93       0.0  T
   2    -49.6558965 -0.106884E-05  0.665E-02    1.93       1.0  T
   3    -49.6558962  0.252088E-06  0.566E-03    1.93       3.5  T
   4    -49.6558969 -0.704994E-06  0.207E-03    1.93       9.5  T
   5    -49.6558970 -0.124187E-07  0.100E-03    1.93      19.5  T
   6    -49.6558970 -0.999550E-08  0.372E-04    1.93      52.7  T
   7    -49.6558970 -0.129955E-08  0.149E-04    1.93     131.6  T
     SCC iter.                  ...        0 min,  0.006 sec
     gradient                   ...        0 min,  0.003 sec
 * total energy  :   -48.9977576 Eh     change       -0.1775606E-04 Eh
   gradient norm :     0.0033937 Eh/α   predicted    -0.1292647E-04 ( -27.20%)
   displ. norm   :     0.0784577 α      lambda       -0.1549195E-04
   maximum displ.:     0.0628134 α      in ANC's #1, #2, #38, ...

........................................................................
.............................. CYCLE   18 ..............................
........................................................................

 iter      E             dE          RMSdq      gap      omega  full diag
   1    -49.6557397 -0.496557E+02  0.328E-02    1.92       0.0  T
   2    -49.6557398 -0.128105E-06  0.194E-02    1.92       1.0  T
   3    -49.6557396  0.206656E-06  0.300E-03    1.92       6.5  T
   4    -49.6557399 -0.268643E-06  0.681E-04    1.92      28.8  T
   5    -49.6557399 -0.152637E-08  0.360E-04    1.92      54.5  T
     SCC iter.                  ...        0 min,  0.007 sec
     gradient                   ...        0 min,  0.003 sec
 * total energy  :   -48.9977688 Eh     change       -0.1123758E-04 Eh
   gradient norm :     0.0024339 Eh/α   predicted    -0.7801205E-05 ( -30.58%)
   displ. norm   :     0.1270021 α      lambda       -0.2372108E-04
   maximum displ.:     0.1100977 α      in ANC's #1, #2, #38, ...

........................................................................
.............................. CYCLE   19 ..............................
........................................................................

 iter      E             dE          RMSdq      gap      omega  full diag
   1    -49.6557731 -0.496558E+02  0.483E-02    1.92       0.0  T
   2    -49.6557734 -0.351844E-06  0.283E-02    1.92       1.0  T
   3    -49.6557733  0.139136E-06  0.386E-03    1.92       5.1  T
   4    -49.6557736 -0.278554E-06  0.115E-03    1.92      17.0  T
   5    -49.6557736 -0.291995E-08  0.551E-04    1.92      35.6  T
   6    -49.6557736 -0.333608E-08  0.169E-04    1.92     115.7  T
     SCC iter.                  ...        0 min,  0.005 sec
     gradient                   ...        0 min,  0.003 sec
 * total energy  :   -48.9977847 Eh     change       -0.1589144E-04 Eh
   gradient norm :     0.0016353 Eh/α   predicted    -0.1205352E-04 ( -24.15%)
   displ. norm   :     0.1294420 α      lambda       -0.1618491E-04
   maximum displ.:     0.1134965 α      in ANC's #1, #3, #2, ...

........................................................................
.............................. CYCLE   20 ..............................
........................................................................

 iter      E             dE          RMSdq      gap      omega  full diag
   1    -49.6559230 -0.496559E+02  0.501E-02    1.92       0.0  T
   2    -49.6559240 -0.102892E-05  0.293E-02    1.92       1.0  T
   3    -49.6559232  0.781732E-06  0.648E-03    1.92       3.0  T
   4    -49.6559243 -0.104458E-05  0.160E-03    1.92      12.2  T
   5    -49.6559243 -0.329356E-07  0.714E-04    1.92      27.5  T
   6    -49.6559243 -0.459531E-08  0.303E-04    1.92      64.7  T
     SCC iter.                  ...        0 min,  0.005 sec
     gradient                   ...        0 min,  0.003 sec
 * total energy  :   -48.9977923 Eh     change       -0.7626516E-05 Eh
   gradient norm :     0.0034776 Eh/α   predicted    -0.8158929E-05 (   6.98%)
   displ. norm   :     0.0647431 α      lambda       -0.1302518E-04
   maximum displ.:     0.0577836 α      in ANC's #1, #2, #38, ...
 * RMSD in coord.:     0.7493988 α      energy gain  -0.7444579E-02 Eh

generating ANC from exact Hessian ...
Using Lindh-Hessian (1995)
 Shifting diagonal of input Hessian by    9.1093931375295142E-003
 Lowest  eigenvalues of input Hessian
    0.000000    0.000000    0.000000    0.000000    0.000000    0.000000
    0.010000    0.010559    0.011267    0.013974    0.015186    0.018176
    0.020619    0.021451    0.025091    0.028213    0.029743    0.031584
 Highest eigenvalues
    1.963683    2.024655    2.103678    2.141245    2.243219    2.427880


........................................................................
.............................. CYCLE   21 ..............................
........................................................................

 iter      E             dE          RMSdq      gap      omega  full diag
   1    -49.6557075 -0.496557E+02  0.238E-02    1.92       0.0  T
   2    -49.6557077 -0.227930E-06  0.139E-02    1.92       1.4  T
   3    -49.6557074  0.290001E-06  0.450E-03    1.92       4.4  T
   4    -49.6557078 -0.386830E-06  0.712E-04    1.92      27.5  T
   5    -49.6557078 -0.138213E-08  0.335E-04    1.92      58.5  T
     SCC iter.                  ...        0 min,  0.004 sec
     gradient                   ...        0 min,  0.003 sec
 * total energy  :   -48.9978006 Eh     change       -0.8330515E-05 Eh
   gradient norm :     0.0021271 Eh/α   predicted     0.0000000E+00 (-100.00%)
   displ. norm   :     0.0102980 α      lambda       -0.4977393E-05
   maximum displ.:     0.0041712 α      in ANC's #9, #11, #3, ...

........................................................................
.............................. CYCLE   22 ..............................
........................................................................

 iter      E             dE          RMSdq      gap      omega  full diag
   1    -49.6557028 -0.496557E+02  0.705E-03    1.92       0.0  T
   2    -49.6557029 -0.763168E-07  0.427E-03    1.92       4.6  T
   3    -49.6557028  0.331886E-07  0.169E-03    1.92      11.6  T
   4    -49.6557029 -0.458252E-07  0.446E-04    1.92      44.0  T
   5    -49.6557029 -0.415266E-08  0.139E-04    1.92     141.4  T
     SCC iter.                  ...        0 min,  0.004 sec
     gradient                   ...        0 min,  0.003 sec
 * total energy  :   -48.9978052 Eh     change       -0.4529322E-05 Eh
   gradient norm :     0.0008894 Eh/α   predicted    -0.3171753E-05 ( -29.97%)
   displ. norm   :     0.0233908 α      lambda       -0.3115568E-05
   maximum displ.:     0.0105600 α      in ANC's #3, #1, #9, ...

   *** GEOMETRY OPTIMIZATION CONVERGED AFTER 22 ITERATIONS ***

------------------------------------------------------------------------
 total energy gain   :        -0.0074574 Eh       -4.6796 kcal/mol
 total RMSD          :         0.7494226 a0        0.3966 Å
 total power (kW/mol):        -0.8899774 (step)  -79.1959 (real)
------------------------------------------------------------------------

 ANCopt (total)                0 d,  0 h,  0 min,  0.247 sec
 optimizer setup                ...        0 min,  0.000 sec (  0.042%)
 model hessian                  ...        0 min,  0.007 sec (  3.032%)
 ANC generation                 ...        0 min,  0.001 sec (  0.375%)
 coordinate transformation      ...        0 min,  0.000 sec (  0.083%)
 single point calculation       ...        0 min,  0.226 sec ( 91.428%)
 optimization log               ...        0 min,  0.004 sec (  1.564%)
 hessian update                 ...        0 min,  0.006 sec (  2.263%)
 rational function              ...        0 min,  0.002 sec (  0.808%)

================
 final structure:
================
26
 xtb: 6.7.1 (edcfbbe)
N            1.16466758747192        0.36685643712292        0.51426532668650
C            1.07693114747552       -0.91306404230863        0.14750955595275
C           -0.17302005929590       -1.47746148263244       -0.13465191626673
C           -1.27711361058110       -0.64020303047058       -0.03517895133096
N           -1.16634455727999        0.63798026137437        0.31610110742374
C            0.05139051580077        1.06730110207184        0.57922121853458
C           -2.65943102604017       -1.13083684687659       -0.32917508835210
O           -3.62599232372971       -0.43780411456113       -0.47498479391538
O           -2.70704039661833       -2.47054036550037       -0.42498473382008
C            2.33009085975991       -1.66844350114181        0.07849457601559
C            2.44336255785692       -2.86741332130393       -0.62311881804133
C            3.64581486657643       -3.54742459663993       -0.66070983779433
C            4.77300053279927       -3.07011852141162       -0.00358642716981
C            4.63728553247936       -1.86526916301031        0.68251334294162
C            3.45469013663967       -1.16195330538724        0.73051282756499
F            5.71377552492288       -1.36487476577838        1.32657477930245
C            6.07546889657901       -3.80181038729711       -0.01187102511133
H           -0.29457198471338       -2.51279990480101       -0.40180114675523
H            0.14679258663984        2.10316969848271        0.87872005509222
H           -3.61564911796635       -2.75330622701686       -0.61486473080527
H            1.59889518550720       -3.26620117476170       -1.16294724549993
H            3.71769049426137       -4.47255557476281       -1.21357238665838
H            3.39116763370959       -0.22952127794159        1.26711302265087
H            6.89924926148897       -3.10998117003847       -0.17732293551927
H            6.23879376236078       -4.27898767801687        0.95491804056934
H            6.08580599389586       -4.56693704739214       -0.78312381569401

 Bond Distances (Angstroems)
 ---------------------------
N1-C2=1.3343         N1-C6=1.3169         C2-N1=1.3343         C2-C3=1.4002         C2-C10=1.4648        C3-C2=1.4002         
C3-C4=1.3892         C3-H18=1.0761        C4-C3=1.3892         C4-N5=1.3302         C4-C7=1.4960         N5-C4=1.3302         
N5-C6=1.3177         C6-N1=1.3169         C6-N5=1.3177         C6-H19=1.0825        C7-C4=1.4960         C7-O8=1.1982         
C7-O9=1.3440         O8-C7=1.1982         O9-C7=1.3440         O9-H20=0.9704        C10-C2=1.4648        C10-C11=1.3938       
C10-C15=1.3951       C11-C10=1.3938       C11-C12=1.3819       C11-H21=1.0787       C12-C11=1.3819       C12-C13=1.3893       
C12-H22=1.0801       C13-C12=1.3893       C13-C14=1.3931       C13-C17=1.4939       C14-C13=1.3931       C14-C15=1.3768       
C14-F16=1.3506       C15-C10=1.3951       C15-C14=1.3768       C15-H23=1.0777       F16-C14=1.3506       C17-C13=1.4939       
C17-H24=1.0884       C17-H25=1.0904       C17-H26=1.0864       H18-C3=1.0761        H19-C6=1.0825        H20-O9=0.9704        
H21-C11=1.0787       H22-C12=1.0801       H23-C15=1.0777       H24-C17=1.0884       H25-C17=1.0904       H26-C17=1.0864       
 C  H  Rav=1.0826 sigma=0.0050  Rmin=1.0761  Rmax=1.0904     8
 C  C  Rav=1.4158 sigma=0.0434  Rmin=1.3768  Rmax=1.4960    11
 N  C  Rav=1.3248 sigma=0.0076  Rmin=1.3169  Rmax=1.3343     4
 O  H  Rav=0.9704 sigma=0.0000  Rmin=0.9704  Rmax=0.9704     1
 O  C  Rav=1.2711 sigma=0.0729  Rmin=1.1982  Rmax=1.3440     2
 F  C  Rav=1.3506 sigma=0.0000  Rmin=1.3506  Rmax=1.3506     1

 selected bond angles (degree)
 --------------------
C6-N1-C2=117.92                C3-C2-N1=120.05                C10-C2-N1=116.83               C10-C2-C3=123.12               
C4-C3-C2=116.88                H18-C3-C2=122.59               H18-C3-C4=120.52               N5-C4-C3=122.13                
C7-C4-C3=121.51                C7-C4-N5=116.36                C6-N5-C4=116.28                N5-C6-N1=126.73                
H19-C6-N1=116.62               H19-C6-N5=116.64               O8-C7-C4=125.42                O9-C7-C4=111.94                
O9-C7-O8=122.64                H20-O9-C7=109.73               C11-C10-C2=122.47              C15-C10-C2=118.71              
C15-C10-C11=118.82             

 selected dihedral angles (degree)
 ---------------------------------
C3-C2-N1-C6=359.04            C10-C2-N1-C6=179.79           C4-C3-C2-N1=  1.11            C4-C3-C2-C10=180.31           
H18-C3-C2-N1=182.09           H18-C3-C2-C10=  1.30          N5-C4-C3-C2=359.72            N5-C4-C3-H18=178.76           
C7-C4-C3-C2=179.27            C7-C4-C3-H18=358.31           C6-N5-C4-C3=359.34            C6-N5-C4-C7=179.77            
N5-C6-N1-C2=359.94            H19-C6-N1-C2=180.01           N1-C6-N5-C4=  0.87            H19-C6-N5-C4=180.80           
O8-C7-C4-C3=192.59            O8-C7-C4-N5= 12.17            O9-C7-C4-C3= 12.17            O9-C7-C4-N5=191.75            
H20-O9-C7-C4=179.95           H20-O9-C7-O8=359.54           C11-C10-C2-N1=198.03          C11-C10-C2-C3= 18.80          
C15-C10-C2-N1= 17.48          C15-C10-C2-C3=198.25          
           -------------------------------------------------
          |                Final Singlepoint                |
           -------------------------------------------------

          ...................................................
          :                      SETUP                      :
          :.................................................:
          :  # basis functions                  77          :
          :  # atomic orbitals                  77          :
          :  # shells                           43          :
          :  # electrons                        86          :
          :  max. iterations                   250          :
          :  Hamiltonian                  GFN2-xTB          :
          :  restarted?                      false          :
          :  GBSA solvation                  false          :
          :  PC potential                    false          :
          :  electronic temp.          300.0000000     K    :
          :  accuracy                    1.0000000          :
          :  -> integral cutoff          0.2500000E+02      :
          :  -> integral neglect         0.1000000E-07      :
          :  -> SCF convergence          0.1000000E-05 Eh   :
          :  -> wf. convergence          0.1000000E-03 e    :
          :  Broyden damping             0.4000000          :
          :  net charge                          0          :
          :  unpaired electrons                  0          :
          ...................................................

 iter      E             dE          RMSdq      gap      omega  full diag
   1    -49.6557029 -0.496557E+02  0.769E-05    1.92       0.0  T
   2    -49.6557029 -0.125979E-10  0.497E-05    1.92     394.9  T
   3    -49.6557029  0.952127E-12  0.328E-05    1.92     598.5  T

   *** convergence criteria satisfied after 3 iterations ***

         #    Occupation            Energy/Eh            Energy/eV
      -------------------------------------------------------------
         1        2.0000           -0.8209448             -22.3390
       ...           ...                  ...                  ...
        37        2.0000           -0.4551100             -12.3842
        38        2.0000           -0.4461372             -12.1400
        39        2.0000           -0.4383389             -11.9278
        40        2.0000           -0.4249689             -11.5640
        41        2.0000           -0.4141718             -11.2702
        42        2.0000           -0.4124911             -11.2245
        43        2.0000           -0.3802612             -10.3474 (HOMO)
        44                         -0.3098226              -8.4307 (LUMO)
        45                         -0.2848001              -7.7498
        46                         -0.2455757              -6.6825
        47                         -0.2380997              -6.4790
        48                         -0.2083453              -5.6694
       ...                                ...                  ...
        77                          0.6871332              18.6978
      -------------------------------------------------------------
                  HL-Gap            0.0704386 Eh            1.9167 eV
             Fermi-level           -0.3450419 Eh           -9.3891 eV

 SCC (total)                   0 d,  0 h,  0 min,  0.006 sec
 SCC setup                      ...        0 min,  0.000 sec (  1.969%)
 Dispersion                     ...        0 min,  0.000 sec (  1.629%)
 classical contributions        ...        0 min,  0.000 sec (  0.256%)
 integral evaluation            ...        0 min,  0.001 sec ( 13.997%)
 iterations                     ...        0 min,  0.003 sec ( 40.090%)
 molecular gradient             ...        0 min,  0.003 sec ( 40.658%)
 printout                       ...        0 min,  0.000 sec (  1.175%)

         :::::::::::::::::::::::::::::::::::::::::::::::::::::
         ::                     SUMMARY                     ::
         :::::::::::::::::::::::::::::::::::::::::::::::::::::
         :: total energy             -48.997805166487 Eh    ::
         :: gradient norm              0.000890392184 Eh/a0 ::
         :: HOMO-LUMO gap              1.916731693569 eV    ::
         ::.................................................::
         :: SCC energy               -49.655854319811 Eh    ::
         :: -> isotropic ES            0.072643403931 Eh    ::
         :: -> anisotropic ES          0.004354552838 Eh    ::
         :: -> anisotropic XC          0.020649598205 Eh    ::
         :: -> dispersion             -0.025847218065 Eh    ::
         :: repulsion energy           0.658049153323 Eh    ::
         :: add. restraining           0.000000000000 Eh    ::
         :: total charge              -0.000000000000 e     ::
         :::::::::::::::::::::::::::::::::::::::::::::::::::::

           -------------------------------------------------
          |                Property Printout                |
           -------------------------------------------------

    * Orbital Energies and Occupations

         #    Occupation            Energy/Eh            Energy/eV
      -------------------------------------------------------------
         1        2.0000           -0.8209448             -22.3390
       ...           ...                  ...                  ...
        31        2.0000           -0.4920601             -13.3896
        32        2.0000           -0.4914942             -13.3742
        33        2.0000           -0.4894873             -13.3196
        34        2.0000           -0.4772356             -12.9862
        35        2.0000           -0.4708109             -12.8114
        36        2.0000           -0.4590298             -12.4908
        37        2.0000           -0.4551100             -12.3842
        38        2.0000           -0.4461372             -12.1400
        39        2.0000           -0.4383389             -11.9278
        40        2.0000           -0.4249689             -11.5640
        41        2.0000           -0.4141718             -11.2702
        42        2.0000           -0.4124911             -11.2245
        43        2.0000           -0.3802612             -10.3474 (HOMO)
        44                         -0.3098226              -8.4307 (LUMO)
        45                         -0.2848001              -7.7498
        46                         -0.2455757              -6.6825
        47                         -0.2380997              -6.4790
        48                         -0.2083453              -5.6694
        49                         -0.1363726              -3.7109
        50                         -0.0976049              -2.6560
        51                          0.0314913               0.8569
        52                          0.0448728               1.2211
        53                          0.0792928               2.1577
        54                          0.0836186               2.2754
       ...                                ...                  ...
        77                          0.6871332              18.6978
      -------------------------------------------------------------
                  HL-Gap            0.0704386 Eh            1.9167 eV
             Fermi-level           -0.3450419 Eh           -9.3891 eV

     #   Z          covCN         q      C6AA      α(0)
     1   7 N        1.843    -0.233    26.949     7.694
     2   6 C        2.975     0.116    25.444     8.274
     3   6 C        2.911    -0.048    29.201     8.861
     4   6 C        2.983     0.086    26.072     8.376
     5   7 N        1.839    -0.218    26.582     7.641
     6   6 C        2.911     0.153    24.682     8.147
     7   6 C        2.696     0.353    21.000     7.500
     8   8 O        0.856    -0.368    21.050     6.151
     9   8 O        1.660    -0.380    20.458     6.106
    10   6 C        2.982     0.002    27.972     8.676
    11   6 C        2.919    -0.038    28.936     8.821
    12   6 C        2.928    -0.040    28.985     8.829
    13   6 C        2.963     0.010    27.786     8.646
    14   6 C        2.790     0.162    24.482     8.105
    15   6 C        2.923    -0.045    29.128     8.851
    16   9 F        0.787    -0.223    11.475     4.001
    17   6 C        3.757    -0.107    22.602     6.778
    18   1 H        0.926     0.064     2.155     2.295
    19   1 H        0.925     0.059     2.207     2.323
    20   1 H        0.804     0.335     0.626     1.242
    21   1 H        0.926     0.047     2.355     2.400
    22   1 H        0.926     0.049     2.328     2.386
    23   1 H        0.926     0.084     1.936     2.176
    24   1 H        0.925     0.065     2.141     2.288
    25   1 H        0.924     0.063     2.164     2.300
    26   1 H        0.925     0.049     2.328     2.386

 Mol. C6AA /au·bohr⁶  :       9362.093247
 Mol. C8AA /au·bohr⁸  :     227746.725218
 Mol. α(0) /au        :        151.253833


Wiberg/Mayer (AO) data.
largest (>0.10) Wiberg bond orders for each atom

 ---------------------------------------------------------------------------
     #   Z sym  total        # sym  WBO       # sym  WBO       # sym  WBO
 ---------------------------------------------------------------------------
     1   7 N    3.067 --     6 C    1.440     2 C    1.377
     2   6 C    3.974 --     1 N    1.377     3 C    1.357    10 C    1.066
     3   6 C    3.987 --     4 C    1.418     2 C    1.357    18 H    0.961
                             6 C    0.105
     4   6 C    3.979 --     3 C    1.418     5 N    1.386     7 C    0.969
     5   7 N    3.060 --     6 C    1.431     4 C    1.386
     6   6 C    3.963 --     1 N    1.440     5 N    1.431    19 H    0.954
                             3 C    0.105
     7   6 C    3.920 --     8 O    1.784     9 O    1.119     4 C    0.969
     8   8 O    2.075 --     7 C    1.784     9 O    0.180
     9   8 O    2.194 --     7 C    1.119    20 H    0.864     8 O    0.180
    10   6 C    3.988 --    11 C    1.379    15 C    1.366     2 C    1.066
    11   6 C    3.991 --    12 C    1.456    10 C    1.379    21 H    0.965
    12   6 C    3.989 --    11 C    1.456    13 C    1.404    22 H    0.968
    13   6 C    3.979 --    12 C    1.404    14 C    1.348    17 C    1.033
    14   6 C    3.887 --    15 C    1.430    13 C    1.348    16 F    0.959
    15   6 C    3.986 --    14 C    1.430    10 C    1.366    23 H    0.960
    16   9 F    1.092 --    14 C    0.959
    17   6 C    3.993 --    13 C    1.033    26 H    0.984    24 H    0.972
                            25 H    0.961
    18   1 H    0.996 --     3 C    0.961
    19   1 H    0.996 --     6 C    0.954
    20   1 H    0.887 --     9 O    0.864
    21   1 H    0.998 --    11 C    0.965
    22   1 H    0.997 --    12 C    0.968
    23   1 H    0.993 --    15 C    0.960
    24   1 H    0.994 --    17 C    0.972
    25   1 H    0.994 --    17 C    0.961
    26   1 H    0.997 --    17 C    0.984
 ---------------------------------------------------------------------------

Topologies differ in total number of bonds
Writing topology from bond orders to xtbtopo.mol

molecular dipole:
                 x           y           z       tot (Debye)
 q only:        0.737      -1.556      -0.385
   full:        0.552      -2.010      -0.521       5.462
molecular quadrupole (traceless):
                xx          xy          yy          xz          yz          zz
 q only:       -8.859      -3.310      13.688      -5.637       4.433      -4.829
  q+dip:      -11.017      -0.958      16.388      -5.677       6.787      -5.370
   full:      -13.260      -0.216      14.809      -6.810       4.305      -1.548

           -------------------------------------------------
          |                Geometry Summary                 |
           -------------------------------------------------

      molecular mass/u    :      232.2109170
   center of mass at/Å    :        1.3968674      -1.4418138       0.1128961
  moments of inertia/u·Å² :        0.3945219E+03   0.2389204E+04   0.2752174E+04
rotational constants/cm⁻¹ :        0.4272926E-01   0.7055753E-02   0.6125206E-02

 * 23 selected distances

     #   Z          #   Z                                           value/Å
     1   7 N        2   6 C                                       1.3343179
     2   6 C        3   6 C                                       1.4001921 (max)
     3   6 C        4   6 C                                       1.3892154
     4   6 C        5   7 N                                       1.3301956
     1   7 N        6   6 C                                       1.3169010
     5   7 N        6   6 C                                       1.3177358
     7   6 C        8   8 O                                       1.1982470
     7   6 C        9   8 O                                       1.3439687
    10   6 C       11   6 C                                       1.3937793
    11   6 C       12   6 C                                       1.3819263
    12   6 C       13   6 C                                       1.3893092
    13   6 C       14   6 C                                       1.3931309
    10   6 C       15   6 C                                       1.3951287
    14   6 C       15   6 C                                       1.3767677
     3   6 C       18   1 H                                       1.0761364
     6   6 C       19   1 H                                       1.0825087
     9   8 O       20   1 H                                       0.9703509 (min)
    11   6 C       21   1 H                                       1.0786899
    12   6 C       22   1 H                                       1.0801346
    15   6 C       23   1 H                                       1.0776848
    17   6 C       24   1 H                                       1.0884008
    17   6 C       25   1 H                                       1.0904378
    17   6 C       26   1 H                                       1.0864422

 * 5 distinct bonds (by element types)

   Z      Z             #   av. dist./Å        max./Å        min./Å
   1 H    6 C           8     1.0825544     1.0904378     1.0761364
   6 C    6 C           8     1.3899312     1.4001921     1.3767677
   6 C    7 N           4     1.3247876     1.3343179     1.3169010
   1 H    8 O           1     0.9703509     0.9703509     0.9703509
   6 C    8 O           2     1.2711079     1.3439687     1.1982470


optimized geometry written to: xtbopt.xyz


           -------------------------------------------------
          | TOTAL ENERGY              -48.997805166487 Eh   |
          | GRADIENT NORM               0.000890392184 Eh/α |
          | HOMO-LUMO GAP               1.916731693569 eV   |
           -------------------------------------------------

------------------------------------------------------------------------
 * finished run on 2024/12/17 at 14:08:27.781     
------------------------------------------------------------------------
 total:
 * wall-time:     0 d,  0 h,  0 min,  0.289 sec
 *  cpu-time:     0 d,  0 h,  0 min,  2.258 sec
 * ratio c/w:     7.812 speedup
 SCF:
 * wall-time:     0 d,  0 h,  0 min,  0.017 sec
 *  cpu-time:     0 d,  0 h,  0 min,  0.138 sec
 * ratio c/w:     7.932 speedup
 ANC optimizer:
 * wall-time:     0 d,  0 h,  0 min,  0.255 sec
 *  cpu-time:     0 d,  0 h,  0 min,  1.997 sec
 * ratio c/w:     7.842 speedup

