23
 energy: -49.871912478800 gnorm: 0.000423789778 xtb: 6.7.1 (edcfbbe)
N            1.18844144081798        0.34605583864056        0.50039476065004
C            1.08954052943665       -0.93433567915460        0.14228804580061
C           -0.16144088697917       -1.49535382117067       -0.13506307117548
C           -1.26071350114142       -0.64974766281335       -0.03920548080758
N           -1.13974936729757        0.63050462830444        0.29742098456317
C            0.07989284364669        1.05611569361039        0.55660100036368
C           -2.65094967857718       -1.13328584741350       -0.31541054207640
O           -3.61476561708324       -0.43307434785703       -0.44121140055401
O           -2.70505573667216       -2.47109812564005       -0.41572650182957
C            2.34052715933848       -1.69973638536004        0.07699264718804
C            2.46341490523338       -2.85025980512673       -0.69980339585739
C            3.66157341680002       -3.53713746814229       -0.74009685186111
C            4.73786708624990       -3.08191470469655        0.00064244614601
C            4.63681063258193       -1.93146431805233        0.77903705269942
C            3.43765698096202       -1.24339633939584        0.80670264800225
Cl           5.99018633822485       -1.37658633838174        1.69064830585103
F            5.89188429082358       -3.76252568082339       -0.04344488500240
H           -0.28754699994143       -2.53305606325054       -0.39105840131118
H            0.18245459163836        2.09475107472470        0.84253049946650
H           -3.61826004926561       -2.75153381641543       -0.58779581732027
H            1.63553417010965       -3.20209486604420       -1.29435549597898
H            3.77957238881011       -4.42515924977509       -1.34063349352578
H            3.33752506228381       -0.34466671576574        1.39339694656909
