      -----------------------------------------------------------      
     |                   =====================                   |     
     |                           x T B                           |     
     |                   =====================                   |     
     |                         S. Grimme                         |     
     |          Mulliken Center for Theoretical Chemistry        |     
     |                    University of Bonn                     |     
      -----------------------------------------------------------      

   * xtb version 6.7.1 (edcfbbe) compiled by 'conda@3ef47c1a292c' on 2024-11-25

   xtb is free software: you can redistribute it and/or modify it under
   the terms of the GNU Lesser General Public License as published by
   the Free Software Foundation, either version 3 of the License, or
   (at your option) any later version.
   
   xtb is distributed in the hope that it will be useful,
   but WITHOUT ANY WARRANTY; without even the implied warranty of
   MERCHANTABILITY or FITNESS FOR A PARTICULAR PURPOSE.  See the
   GNU Lesser General Public License for more details.
   
   Cite this work as:
   * C. Bannwarth, E. Caldeweyher, S. Ehlert, A. Hansen, P. Pracht,
     J. Seibert, S. Spicher, S. Grimme, WIREs Comput. Mol. Sci., 2020, 11,
     e01493. DOI: 10.1002/wcms.1493
   
   for GFN2-xTB:
   * C. Bannwarth, S. Ehlert and S. Grimme., J. Chem. Theory Comput., 2019,
     15, 1652-1671. DOI: 10.1021/acs.jctc.8b01176
   for GFN1-xTB:
   * S. Grimme, C. Bannwarth, P. Shushkov, J. Chem. Theory Comput., 2017,
     13, 1989-2009. DOI: 10.1021/acs.jctc.7b00118
   for GFN0-xTB:
   * P. Pracht, E. Caldeweyher, S. Ehlert, S. Grimme, ChemRxiv, 2019, preprint.
     DOI: 10.26434/chemrxiv.8326202.v1
   for GFN-FF:
   * S. Spicher and S. Grimme, Angew. Chem. Int. Ed., 2020, 59, 15665-15673.
     DOI: 10.1002/anie.202004239
   
   for ALPB and GBSA implicit solvation:
   * S. Ehlert, M. Stahn, S. Spicher, S. Grimme, J. Chem. Theory Comput.,
     2021, 17, 4250-4261. DOI: 10.1021/acs.jctc.1c00471
   
   for ddCOSMO and CPCM-X implicit solvation:
   * M. Stahn, S. Ehlert, S. Grimme, J. Phys. Chem. A,
     2023, XX, XXXX-XXXX. DOI: 10.1021/acs.jpca.3c04382
   
   for DFT-D4:
   * E. Caldeweyher, C. Bannwarth and S. Grimme, J. Chem. Phys., 2017,
     147, 034112. DOI: 10.1063/1.4993215
   * E. Caldeweyher, S. Ehlert, A. Hansen, H. Neugebauer, S. Spicher,
     C. Bannwarth and S. Grimme, J. Chem. Phys., 2019, 150, 154122.
     DOI: 10.1063/1.5090222
   * E. Caldeweyher, J.-M. Mewes, S. Ehlert and S. Grimme, Phys. Chem. Chem. Phys.
     2020, 22, 8499-8512. DOI: 10.1039/D0CP00502A
   
   for sTDA-xTB:
   * S. Grimme and C. Bannwarth, J. Chem. Phys., 2016, 145, 054103.
     DOI: 10.1063/1.4959605
   
   in the mass-spec context:
   * V. Asgeirsson, C. Bauer and S. Grimme, Chem. Sci., 2017, 8, 4879.
     DOI: 10.1039/c7sc00601b
   * J. Koopman and S. Grimme, ACS Omega 2019, 4, 12, 15120-15133.
     DOI: 10.1021/acsomega.9b02011
   
   for metadynamics refer to:
   * S. Grimme, J. Chem. Theory Comput., 2019, 155, 2847-2862
     DOI: 10.1021/acs.jctc.9b00143
   
   for SPH calculations refer to:
   * S. Spicher and S. Grimme, J. Chem. Theory Comput., 2021, 17, 1701-1714
     DOI: 10.1021/acs.jctc.0c01306
   
   for ONIOM refer to:
   * C. Plett, A. Katbashev, S. Ehlert, S. Grimme, M. Bursch,
     Phys. Chem. Chem. Phys., 2023, 25, 17860-17868. DOI: 10.1039/D3CP02178E
   
   for DIPRO refer to:
   * J. Kohn, N. Gildemeister, S. Grimme, D. Fazzi, A. Hansen,
     J. Chem. Phys., 2023, just accepted.
   
   for PTB refer to:
   * S. Grimme, M. Mueller, A. Hansen, J. Chem. Phys., 2023, 158, 124111.
     DOI: 10.1063/5.0137838
   
   with help from (in alphabetical order)
   P. Atkinson, C. Bannwarth, F. Bohle, G. Brandenburg, E. Caldeweyher
   M. Checinski, S. Dohm, S. Ehlert, S. Ehrlich, I. Gerasimov, C. Hölzer
   A. Katbashev, J. Kohn, J. Koopman, C. Lavigne, S. Lehtola, F. März, M. Müller,
   F. Musil, H. Neugebauer, J. Pisarek, C. Plett, P. Pracht, F. Pultar,
   J. Seibert, P. Shushkov, S. Spicher, M. Stahn, M. Steiner, T. Strunk,
   J. Stückrath, T. Rose, and J. Unsleber
   
 * started run on 2024/12/17 at 14:08:19.137     
   ID    Z sym.   atoms
    1    7 N      1, 5
    2    6 C      2-4, 6, 7, 10-15
    3    8 O      8, 9
    4   17 Cl     16
    5    9 F      17
    6    1 H      18-23

           -------------------------------------------------
          |                Calculation Setup                |
           -------------------------------------------------

          program call               : xtb K011.xyz --opt --namespace K011
          calculation namespace      : K011
          coordinate file            : K011.xyz
          omp threads                :                     8


           -------------------------------------------------
          |                 G F N 2 - x T B                 |
           -------------------------------------------------

        Reference                      10.1021/acs.jctc.8b01176
      * Hamiltonian:
        H0-scaling (s, p, d)           1.850000    2.230000    2.230000
        zeta-weighting                 0.500000
      * Dispersion:
        s8                             2.700000
        a1                             0.520000
        a2                             5.000000
        s9                             5.000000
      * Repulsion:
        kExp                           1.500000    1.000000
        rExp                           1.000000
      * Coulomb:
        alpha                          2.000000
        third order                    shell-resolved
        anisotropic                    true
        a3                             3.000000
        a5                             4.000000
        cn-shift                       1.200000
        cn-exp                         4.000000
        max-rad                        5.000000


          ...................................................
          :                      SETUP                      :
          :.................................................:
          :  # basis functions                  80          :
          :  # atomic orbitals                  79          :
          :  # shells                           41          :
          :  # electrons                        86          :
          :  max. iterations                   250          :
          :  Hamiltonian                  GFN2-xTB          :
          :  restarted?                      false          :
          :  GBSA solvation                  false          :
          :  PC potential                    false          :
          :  electronic temp.          300.0000000     K    :
          :  accuracy                    1.0000000          :
          :  -> integral cutoff          0.2500000E+02      :
          :  -> integral neglect         0.1000000E-07      :
          :  -> SCF convergence          0.1000000E-05 Eh   :
          :  -> wf. convergence          0.1000000E-03 e    :
          :  Broyden damping             0.4000000          :
          :  net charge                          0          :
          :  unpaired electrons                  0          :
          ...................................................

 iter      E             dE          RMSdq      gap      omega  full diag
   1    -50.3622879 -0.503623E+02  0.514E+00    2.26       0.0  T
   2    -50.4132657 -0.509778E-01  0.309E+00    2.22       1.0  T
   3    -50.4101888  0.307690E-02  0.147E+00    1.98       1.0  T
   4    -50.4240654 -0.138766E-01  0.320E-01    1.89       1.0  T
   5    -50.4261773 -0.211193E-02  0.123E-01    1.87       1.0  T
   6    -50.4263613 -0.183952E-03  0.608E-02    1.86       1.0  T
   7    -50.4263763 -0.149935E-04  0.406E-02    1.87       1.0  T
   8    -50.4263885 -0.122271E-04  0.291E-02    1.87       1.0  T
   9    -50.4263952 -0.672356E-05  0.193E-02    1.87       1.1  T
  10    -50.4263988 -0.356891E-05  0.949E-03    1.87       2.2  T
  11    -50.4263997 -0.935371E-06  0.420E-03    1.87       5.0  T
  12    -50.4263998 -0.123546E-06  0.151E-03    1.87      13.8  T
  13    -50.4263999 -0.121259E-07  0.774E-04    1.87      26.9  T
  14    -50.4263999 -0.351485E-08  0.448E-04    1.87      46.5  T

   *** convergence criteria satisfied after 14 iterations ***

         #    Occupation            Energy/Eh            Energy/eV
      -------------------------------------------------------------
         1        2.0000           -1.0696279             -29.1061
       ...           ...                  ...                  ...
        37        2.0000           -0.4622126             -12.5774
        38        2.0000           -0.4464676             -12.1490
        39        2.0000           -0.4366741             -11.8825
        40        2.0000           -0.4339945             -11.8096
        41        2.0000           -0.4276026             -11.6357
        42        2.0000           -0.4176897             -11.3659
        43        2.0000           -0.3930455             -10.6953 (HOMO)
        44                         -0.3242992              -8.8246 (LUMO)
        45                         -0.2928729              -7.9695
        46                         -0.2699427              -7.3455
        47                         -0.2585526              -7.0356
        48                         -0.2298113              -6.2535
       ...                                ...                  ...
        79                          0.6281409              17.0926
      -------------------------------------------------------------
                  HL-Gap            0.0687463 Eh            1.8707 eV
             Fermi-level           -0.3586724 Eh           -9.7600 eV

 SCC (total)                   0 d,  0 h,  0 min,  0.019 sec
 SCC setup                      ...        0 min,  0.000 sec (  0.565%)
 Dispersion                     ...        0 min,  0.000 sec (  1.082%)
 classical contributions        ...        0 min,  0.000 sec (  0.269%)
 integral evaluation            ...        0 min,  0.002 sec ( 12.565%)
 iterations                     ...        0 min,  0.014 sec ( 70.488%)
 molecular gradient             ...        0 min,  0.003 sec ( 14.551%)
 printout                       ...        0 min,  0.000 sec (  0.402%)

         :::::::::::::::::::::::::::::::::::::::::::::::::::::
         ::                     SUMMARY                     ::
         :::::::::::::::::::::::::::::::::::::::::::::::::::::
         :: total energy             -49.864899582814 Eh    ::
         :: gradient norm              0.073785271524 Eh/a0 ::
         :: HOMO-LUMO gap              1.870682989696 eV    ::
         ::.................................................::
         :: SCC energy               -50.426464198682 Eh    ::
         :: -> isotropic ES            0.074969441754 Eh    ::
         :: -> anisotropic ES          0.002851421251 Eh    ::
         :: -> anisotropic XC          0.019330271853 Eh    ::
         :: -> dispersion             -0.024911397430 Eh    ::
         :: repulsion energy           0.561564615868 Eh    ::
         :: add. restraining           0.000000000000 Eh    ::
         :: total charge               0.000000000000 e     ::
         :::::::::::::::::::::::::::::::::::::::::::::::::::::

      ----------------------------------------------------------- 
     |                   =====================                   |
     |                        A N C O P T                        |
     |                   =====================                   |
     |               Approximate Normal Coordinate               |
     |                Rational Function Optimizer                |
      ----------------------------------------------------------- 
      ----------------------------------------------------------- 
     |                   =====================                   |
     |                        A N C O P T                        |
     |                   =====================                   |
     |               Approximate Normal Coordinate               |
     |                Rational Function Optimizer                |
      ----------------------------------------------------------- 

          ...................................................
          :                      SETUP                      :
          :.................................................:
          :   optimization level            normal          :
          :   max. optcycles                   200          :
          :   ANC micro-cycles                  20          :
          :   degrees of freedom                63          :
          :.................................................:
          :   RF solver                   davidson          :
          :   write xtbopt.log                true          :
          :   linear?                        false          :
          :   energy convergence         0.5000000E-05 Eh   :
          :   grad. convergence          0.1000000E-02 Eh/α :
          :   maxmium RF displ.          1.0000000          :
          :   Hlow (freq-cutoff)         0.1000000E-01      :
          :   Hmax (freq-cutoff)         5.0000000          :
          :   S6 in model hess.         20.0000000          :
          ...................................................

generating ANC from exact Hessian ...
Using Lindh-Hessian (1995)
 Shifting diagonal of input Hessian by    8.9623643167729746E-003
 Lowest  eigenvalues of input Hessian
    0.000000    0.000000    0.000000    0.000000    0.000000    0.000000
    0.010000    0.010776    0.011299    0.014971    0.016900    0.020048
    0.021139    0.025874    0.030494    0.032295    0.037037    0.038719
 Highest eigenvalues
    1.965286    1.984972    2.059763    2.077277    2.122053    2.331383


........................................................................
.............................. CYCLE    1 ..............................
........................................................................

 iter      E             dE          RMSdq      gap      omega  full diag
   1    -50.4263999 -0.504264E+02  0.262E-04    1.87       0.0  T
   2    -50.4263999 -0.215785E-09  0.212E-04    1.87      98.5  T
   3    -50.4263999 -0.926121E-10  0.168E-04    1.87     124.3  T
     SCC iter.                  ...        0 min,  0.003 sec
     gradient                   ...        0 min,  0.003 sec
 * total energy  :   -49.8648996 Eh     change       -0.1458879E-08 Eh
   gradient norm :     0.0737867 Eh/α   predicted     0.0000000E+00 (-100.00%)
   displ. norm   :     0.1600619 α      lambda       -0.6588667E-02
   maximum displ.:     0.0661946 α      in ANC's #12, #31, #25, ...

........................................................................
.............................. CYCLE    2 ..............................
........................................................................

 iter      E             dE          RMSdq      gap      omega  full diag
   1    -50.4577148 -0.504577E+02  0.147E-01    1.92       0.0  T
   2    -50.4577858 -0.709133E-04  0.101E-01    1.92       1.0  T
   3    -50.4577918 -0.606536E-05  0.508E-02    1.92       1.0  T
   4    -50.4578100 -0.181976E-04  0.140E-02    1.92       1.5  T
   5    -50.4578123 -0.223503E-05  0.431E-03    1.92       4.8  T
   6    -50.4578124 -0.135527E-06  0.255E-03    1.92       8.2  T
   7    -50.4578124 -0.361094E-07  0.139E-03    1.92      15.0  T
   8    -50.4578125 -0.189330E-07  0.885E-04    1.92      23.6  T
   9    -50.4578125 -0.546112E-08  0.492E-04    1.92      42.4  T
     SCC iter.                  ...        0 min,  0.008 sec
     gradient                   ...        0 min,  0.003 sec
 * total energy  :   -49.8692990 Eh     change       -0.4399410E-02 Eh
   gradient norm :     0.0240341 Eh/α   predicted    -0.3378953E-02 ( -23.20%)
   displ. norm   :     0.1477294 α      lambda       -0.1534984E-02
   maximum displ.:     0.0659368 α      in ANC's #1, #25, #2, ...

........................................................................
.............................. CYCLE    3 ..............................
........................................................................

 iter      E             dE          RMSdq      gap      omega  full diag
   1    -50.4694856 -0.504695E+02  0.998E-02    1.94       0.0  T
   2    -50.4695043 -0.187554E-04  0.647E-02    1.94       1.0  T
   3    -50.4694994  0.487311E-05  0.328E-02    1.94       1.0  T
   4    -50.4695128 -0.133870E-04  0.690E-03    1.94       3.0  T
   5    -50.4695133 -0.458549E-06  0.306E-03    1.94       6.8  T
   6    -50.4695133 -0.439719E-07  0.194E-03    1.94      10.7  T
   7    -50.4695133 -0.194929E-07  0.116E-03    1.94      17.9  T
   8    -50.4695134 -0.113927E-07  0.841E-04    1.94      24.8  T
   9    -50.4695134 -0.652933E-08  0.393E-04    1.94      53.0  T
     SCC iter.                  ...        0 min,  0.008 sec
     gradient                   ...        0 min,  0.003 sec
 * total energy  :   -49.8702103 Eh     change       -0.9113309E-03 Eh
   gradient norm :     0.0075678 Eh/α   predicted    -0.7843409E-03 ( -13.93%)
   displ. norm   :     0.1245431 α      lambda       -0.2972532E-03
   maximum displ.:     0.0780039 α      in ANC's #1, #2, #4, ...

........................................................................
.............................. CYCLE    4 ..............................
........................................................................

 iter      E             dE          RMSdq      gap      omega  full diag
   1    -50.4693548 -0.504694E+02  0.672E-02    1.94       0.0  T
   2    -50.4693564 -0.167411E-05  0.392E-02    1.94       1.0  T
   3    -50.4693543  0.210048E-05  0.111E-02    1.94       1.9  T
   4    -50.4693570 -0.271278E-05  0.253E-03    1.94       8.3  T
   5    -50.4693571 -0.438783E-07  0.139E-03    1.94      15.0  T
   6    -50.4693571 -0.120552E-07  0.735E-04    1.94      28.4  T
   7    -50.4693571 -0.201879E-08  0.486E-04    1.94      42.9  T
     SCC iter.                  ...        0 min,  0.006 sec
     gradient                   ...        0 min,  0.003 sec
 * total energy  :   -49.8704381 Eh     change       -0.2277479E-03 Eh
   gradient norm :     0.0065271 Eh/α   predicted    -0.1509354E-03 ( -33.73%)
   displ. norm   :     0.2187170 α      lambda       -0.3005479E-03
   maximum displ.:     0.1406432 α      in ANC's #1, #2, #4, ...

........................................................................
.............................. CYCLE    5 ..............................
........................................................................

 iter      E             dE          RMSdq      gap      omega  full diag
   1    -50.4671191 -0.504671E+02  0.116E-01    1.94       0.0  T
   2    -50.4671224 -0.325102E-05  0.674E-02    1.94       1.0  T
   3    -50.4671201  0.224321E-05  0.123E-02    1.94       1.7  T
   4    -50.4671234 -0.325958E-05  0.325E-03    1.94       6.4  T
   5    -50.4671234 -0.578720E-07  0.179E-03    1.94      11.6  T
   6    -50.4671235 -0.372849E-07  0.784E-04    1.94      26.6  T
   7    -50.4671235 -0.280446E-08  0.496E-04    1.94      42.0  T
     SCC iter.                  ...        0 min,  0.006 sec
     gradient                   ...        0 min,  0.003 sec
 * total energy  :   -49.8706428 Eh     change       -0.2047713E-03 Eh
   gradient norm :     0.0039172 Eh/α   predicted    -0.1574633E-03 ( -23.10%)
   displ. norm   :     0.1843842 α      lambda       -0.1437260E-03
   maximum displ.:     0.1251958 α      in ANC's #1, #2, #3, ...

........................................................................
.............................. CYCLE    6 ..............................
........................................................................

 iter      E             dE          RMSdq      gap      omega  full diag
   1    -50.4661744 -0.504662E+02  0.972E-02    1.94       0.0  T
   2    -50.4661760 -0.161598E-05  0.566E-02    1.94       1.0  T
   3    -50.4661747  0.136260E-05  0.929E-03    1.94       2.2  T
   4    -50.4661766 -0.194211E-05  0.222E-03    1.94       9.4  T
   5    -50.4661766 -0.220992E-07  0.102E-03    1.94      20.4  T
   6    -50.4661766 -0.970756E-08  0.396E-04    1.94      52.6  T
   7    -50.4661766 -0.140549E-08  0.231E-04    1.94      90.2  T
     SCC iter.                  ...        0 min,  0.006 sec
     gradient                   ...        0 min,  0.007 sec
 * total energy  :   -49.8707591 Eh     change       -0.1162779E-03 Eh
   gradient norm :     0.0037929 Eh/α   predicted    -0.7431676E-04 ( -36.09%)
   displ. norm   :     0.2173215 α      lambda       -0.1674119E-03
   maximum displ.:     0.1453534 α      in ANC's #1, #2, #3, ...

........................................................................
.............................. CYCLE    7 ..............................
........................................................................

 iter      E             dE          RMSdq      gap      omega  full diag
   1    -50.4660908 -0.504661E+02  0.115E-01    1.94       0.0  T
   2    -50.4660925 -0.169743E-05  0.669E-02    1.94       1.0  T
   3    -50.4660912  0.137113E-05  0.935E-03    1.94       2.2  T
   4    -50.4660932 -0.202685E-05  0.237E-03    1.94       8.8  T
   5    -50.4660932 -0.227610E-07  0.938E-04    1.94      22.2  T
   6    -50.4660932 -0.618018E-08  0.380E-04    1.94      54.8  T
     SCC iter.                  ...        0 min,  0.005 sec
     gradient                   ...        0 min,  0.003 sec
 * total energy  :   -49.8709039 Eh     change       -0.1447373E-03 Eh
   gradient norm :     0.0053767 Eh/α   predicted    -0.8766024E-04 ( -39.43%)
   displ. norm   :     0.3177276 α      lambda       -0.2412508E-03
   maximum displ.:     0.2149161 α      in ANC's #1, #2, #3, ...

........................................................................
.............................. CYCLE    8 ..............................
........................................................................

 iter      E             dE          RMSdq      gap      omega  full diag
   1    -50.4663231 -0.504663E+02  0.167E-01    1.93       0.0  T
   2    -50.4663262 -0.310124E-05  0.970E-02    1.93       1.0  T
   3    -50.4663246  0.155083E-05  0.114E-02    1.93       1.8  T
   4    -50.4663273 -0.273511E-05  0.338E-03    1.93       6.2  T
   5    -50.4663274 -0.419615E-07  0.125E-03    1.93      16.7  T
   6    -50.4663274 -0.147853E-07  0.565E-04    1.93      36.9  T
   7    -50.4663274 -0.258382E-08  0.389E-04    1.93      53.6  T
     SCC iter.                  ...        0 min,  0.006 sec
     gradient                   ...        0 min,  0.003 sec
 * total energy  :   -49.8711043 Eh     change       -0.2004780E-03 Eh
   gradient norm :     0.0068275 Eh/α   predicted    -0.1328053E-03 ( -33.76%)
   displ. norm   :     0.3648405 α      lambda       -0.2396570E-03
   maximum displ.:     0.2546602 α      in ANC's #1, #2, #3, ...

........................................................................
.............................. CYCLE    9 ..............................
........................................................................

 iter      E             dE          RMSdq      gap      omega  full diag
   1    -50.4662894 -0.504663E+02  0.190E-01    1.93       0.0  T
   2    -50.4662930 -0.361271E-05  0.111E-01    1.93       1.0  T
   3    -50.4662912  0.183984E-05  0.132E-02    1.93       1.6  T
   4    -50.4662944 -0.328761E-05  0.380E-03    1.93       5.5  T
   5    -50.4662945 -0.407913E-07  0.152E-03    1.93      13.8  T
   6    -50.4662945 -0.258892E-07  0.740E-04    1.93      28.2  T
   7    -50.4662945 -0.281089E-08  0.554E-04    1.93      37.6  T
     SCC iter.                  ...        0 min,  0.006 sec
     gradient                   ...        0 min,  0.003 sec
 * total energy  :   -49.8712946 Eh     change       -0.1903093E-03 Eh
   gradient norm :     0.0062859 Eh/α   predicted    -0.1357799E-03 ( -28.65%)
   displ. norm   :     0.3076696 α      lambda       -0.1779759E-03
   maximum displ.:     0.2299082 α      in ANC's #1, #2, #3, ...

........................................................................
.............................. CYCLE   10 ..............................
........................................................................

 iter      E             dE          RMSdq      gap      omega  full diag
   1    -50.4670962 -0.504671E+02  0.159E-01    1.92       0.0  T
   2    -50.4670985 -0.225743E-05  0.928E-02    1.92       1.0  T
   3    -50.4670967  0.172457E-05  0.117E-02    1.92       1.8  T
   4    -50.4670995 -0.272343E-05  0.302E-03    1.92       6.9  T
   5    -50.4670995 -0.175340E-07  0.128E-03    1.92      16.3  T
   6    -50.4670995 -0.220386E-07  0.580E-04    1.92      36.0  T
   7    -50.4670995 -0.143722E-08  0.436E-04    1.92      47.8  T
     SCC iter.                  ...        0 min,  0.006 sec
     gradient                   ...        0 min,  0.003 sec
 * total energy  :   -49.8714338 Eh     change       -0.1391764E-03 Eh
   gradient norm :     0.0039441 Eh/α   predicted    -0.9741256E-04 ( -30.01%)
   displ. norm   :     0.2552432 α      lambda       -0.1193966E-03
   maximum displ.:     0.2000390 α      in ANC's #1, #3, #2, ...

........................................................................
.............................. CYCLE   11 ..............................
........................................................................

 iter      E             dE          RMSdq      gap      omega  full diag
   1    -50.4678841 -0.504679E+02  0.131E-01    1.92       0.0  T
   2    -50.4678854 -0.127210E-05  0.764E-02    1.92       1.0  T
   3    -50.4678836  0.181412E-05  0.101E-02    1.92       2.1  T
   4    -50.4678861 -0.249012E-05  0.225E-03    1.92       9.3  T
   5    -50.4678861 -0.663179E-08  0.843E-04    1.92      24.7  T
   6    -50.4678861 -0.105115E-07  0.320E-04    1.92      65.2  T
     SCC iter.                  ...        0 min,  0.008 sec
     gradient                   ...        0 min,  0.003 sec
 * total energy  :   -49.8715290 Eh     change       -0.9519096E-04 Eh
   gradient norm :     0.0023857 Eh/α   predicted    -0.6359278E-04 ( -33.19%)
   displ. norm   :     0.2117155 α      lambda       -0.8326839E-04
   maximum displ.:     0.1739117 α      in ANC's #1, #3, #2, ...

........................................................................
.............................. CYCLE   12 ..............................
........................................................................

 iter      E             dE          RMSdq      gap      omega  full diag
   1    -50.4684043 -0.504684E+02  0.106E-01    1.92       0.0  T
   2    -50.4684050 -0.726644E-06  0.617E-02    1.92       1.0  T
   3    -50.4684039  0.111486E-05  0.731E-03    1.92       2.9  T
   4    -50.4684054 -0.152483E-05  0.170E-03    1.92      12.2  T
   5    -50.4684054 -0.403143E-08  0.601E-04    1.92      34.7  T
   6    -50.4684054 -0.448150E-08  0.269E-04    1.92      77.5  T
     SCC iter.                  ...        0 min,  0.005 sec
     gradient                   ...        0 min,  0.003 sec
 * total energy  :   -49.8715985 Eh     change       -0.6944653E-04 Eh
   gradient norm :     0.0025014 Eh/α   predicted    -0.4350459E-04 ( -37.36%)
   displ. norm   :     0.1763602 α      lambda       -0.6443381E-04
   maximum displ.:     0.1498798 α      in ANC's #1, #3, #5, ...

........................................................................
.............................. CYCLE   13 ..............................
........................................................................

 iter      E             dE          RMSdq      gap      omega  full diag
   1    -50.4686623 -0.504687E+02  0.853E-02    1.92       0.0  T
   2    -50.4686627 -0.412710E-06  0.500E-02    1.92       1.0  T
   3    -50.4686619  0.801258E-06  0.584E-03    1.92       3.6  T
   4    -50.4686630 -0.105163E-05  0.135E-03    1.92      15.4  T
   5    -50.4686630 -0.311404E-08  0.650E-04    1.92      32.1  T
   6    -50.4686630 -0.366681E-08  0.310E-04    1.92      67.2  T
     SCC iter.                  ...        0 min,  0.005 sec
     gradient                   ...        0 min,  0.003 sec
 * total energy  :   -49.8716545 Eh     change       -0.5602920E-04 Eh
   gradient norm :     0.0026360 Eh/α   predicted    -0.3322783E-04 ( -40.70%)
   displ. norm   :     0.1519165 α      lambda       -0.5538112E-04
   maximum displ.:     0.1338103 α      in ANC's #1, #3, #5, ...

........................................................................
.............................. CYCLE   14 ..............................
........................................................................

 iter      E             dE          RMSdq      gap      omega  full diag
   1    -50.4687825 -0.504688E+02  0.695E-02    1.92       0.0  T
   2    -50.4687828 -0.320934E-06  0.408E-02    1.92       1.0  T
   3    -50.4687823  0.489290E-06  0.462E-03    1.92       4.5  T
   4    -50.4687830 -0.662204E-06  0.121E-03    1.92      17.3  T
   5    -50.4687830 -0.493952E-08  0.717E-04    1.92      29.1  T
   6    -50.4687830 -0.407027E-08  0.374E-04    1.92      55.7  T
     SCC iter.                  ...        0 min,  0.005 sec
     gradient                   ...        0 min,  0.003 sec
 * total energy  :   -49.8717031 Eh     change       -0.4862193E-04 Eh
   gradient norm :     0.0021482 Eh/α   predicted    -0.2833362E-04 ( -41.73%)
   displ. norm   :     0.1325791 α      lambda       -0.4860064E-04
   maximum displ.:     0.1189313 α      in ANC's #1, #3, #5, ...

........................................................................
.............................. CYCLE   15 ..............................
........................................................................

 iter      E             dE          RMSdq      gap      omega  full diag
   1    -50.4687564 -0.504688E+02  0.599E-02    1.92       0.0  T
   2    -50.4687566 -0.216434E-06  0.353E-02    1.92       1.0  T
   3    -50.4687563  0.352585E-06  0.403E-03    1.92       5.2  T
   4    -50.4687567 -0.475139E-06  0.112E-03    1.92      18.6  T
   5    -50.4687567 -0.522514E-08  0.715E-04    1.92      29.2  T
   6    -50.4687567 -0.360959E-08  0.369E-04    1.92      56.4  T
     SCC iter.                  ...        0 min,  0.005 sec
     gradient                   ...        0 min,  0.003 sec
 * total energy  :   -49.8717457 Eh     change       -0.4256422E-04 Eh
   gradient norm :     0.0017243 Eh/α   predicted    -0.2472875E-04 ( -41.90%)
   displ. norm   :     0.1754809 α      lambda       -0.4234379E-04
   maximum displ.:     0.1582564 α      in ANC's #1, #2, #3, ...

........................................................................
.............................. CYCLE   16 ..............................
........................................................................

 iter      E             dE          RMSdq      gap      omega  full diag
   1    -50.4686299 -0.504686E+02  0.764E-02    1.92       0.0  T
   2    -50.4686304 -0.499143E-06  0.448E-02    1.92       1.0  T
   3    -50.4686301  0.281206E-06  0.457E-03    1.92       4.6  T
   4    -50.4686306 -0.511887E-06  0.166E-03    1.92      12.6  T
   5    -50.4686306 -0.845807E-08  0.904E-04    1.92      23.1  T
   6    -50.4686306 -0.729140E-08  0.532E-04    1.92      39.2  T
     SCC iter.                  ...        0 min,  0.005 sec
     gradient                   ...        0 min,  0.003 sec
 * total energy  :   -49.8717991 Eh     change       -0.5346418E-04 Eh
   gradient norm :     0.0016651 Eh/α   predicted    -0.2146356E-04 ( -59.85%)
   displ. norm   :     0.1522542 α      lambda       -0.3320389E-04
   maximum displ.:     0.1354830 α      in ANC's #1, #2, #4, ...

........................................................................
.............................. CYCLE   17 ..............................
........................................................................

 iter      E             dE          RMSdq      gap      omega  full diag
   1    -50.4685922 -0.504686E+02  0.681E-02    1.92       0.0  T
   2    -50.4685927 -0.463364E-06  0.399E-02    1.92       1.0  T
   3    -50.4685926  0.779481E-07  0.368E-03    1.92       5.7  T
   4    -50.4685929 -0.280525E-06  0.171E-03    1.92      12.2  T
   5    -50.4685929 -0.178127E-07  0.754E-04    1.92      27.7  T
   6    -50.4685929 -0.368890E-08  0.495E-04    1.92      42.2  T
     SCC iter.                  ...        0 min,  0.005 sec
     gradient                   ...        0 min,  0.003 sec
 * total energy  :   -49.8718405 Eh     change       -0.4132480E-04 Eh
   gradient norm :     0.0016764 Eh/α   predicted    -0.1677582E-04 ( -59.40%)
   displ. norm   :     0.1455219 α      lambda       -0.2834050E-04
   maximum displ.:     0.1296133 α      in ANC's #1, #2, #4, ...

........................................................................
.............................. CYCLE   18 ..............................
........................................................................

 iter      E             dE          RMSdq      gap      omega  full diag
   1    -50.4681912 -0.504682E+02  0.660E-02    1.92       0.0  T
   2    -50.4681919 -0.613169E-06  0.385E-02    1.92       1.0  T
   3    -50.4681918  0.724885E-07  0.424E-03    1.92       4.9  T
   4    -50.4681921 -0.289935E-06  0.172E-03    1.92      12.1  T
   5    -50.4681921 -0.155873E-07  0.797E-04    1.92      26.1  T
   6    -50.4681921 -0.210368E-08  0.465E-04    1.92      44.9  T
     SCC iter.                  ...        0 min,  0.005 sec
     gradient                   ...        0 min,  0.003 sec
 * total energy  :   -49.8718728 Eh     change       -0.3231495E-04 Eh
   gradient norm :     0.0014096 Eh/α   predicted    -0.1430584E-04 ( -55.73%)
   displ. norm   :     0.1453315 α      lambda       -0.2088959E-04
   maximum displ.:     0.1274720 α      in ANC's #1, #2, #3, ...

........................................................................
.............................. CYCLE   19 ..............................
........................................................................

 iter      E             dE          RMSdq      gap      omega  full diag
   1    -50.4684767 -0.504685E+02  0.679E-02    1.92       0.0  T
   2    -50.4684773 -0.663451E-06  0.397E-02    1.92       1.0  T
   3    -50.4684773  0.756922E-07  0.406E-03    1.92       5.1  T
   4    -50.4684776 -0.321264E-06  0.191E-03    1.92      10.9  T
   5    -50.4684776 -0.262780E-07  0.818E-04    1.92      25.5  T
   6    -50.4684776 -0.574158E-08  0.490E-04    1.92      42.6  T
     SCC iter.                  ...        0 min,  0.005 sec
     gradient                   ...        0 min,  0.003 sec
 * total energy  :   -49.8718929 Eh     change       -0.2012429E-04 Eh
   gradient norm :     0.0012371 Eh/α   predicted    -0.1054588E-04 ( -47.60%)
   displ. norm   :     0.0907071 α      lambda       -0.1001325E-04
   maximum displ.:     0.0848283 α      in ANC's #1, #4, #2, ...

........................................................................
.............................. CYCLE   20 ..............................
........................................................................

 iter      E             dE          RMSdq      gap      omega  full diag
   1    -50.4682328 -0.504682E+02  0.424E-02    1.91       0.0  T
   2    -50.4682330 -0.210594E-06  0.247E-02    1.91       1.0  T
   3    -50.4682329  0.123035E-06  0.369E-03    1.91       5.7  T
   4    -50.4682331 -0.219442E-06  0.105E-03    1.91      19.9  T
   5    -50.4682331 -0.244790E-08  0.500E-04    1.91      41.7  T
   6    -50.4682331 -0.140346E-08  0.324E-04    1.91      64.4  T
     SCC iter.                  ...        0 min,  0.006 sec
     gradient                   ...        0 min,  0.005 sec
 * total energy  :   -49.8719028 Eh     change       -0.9874624E-05 Eh
   gradient norm :     0.0009122 Eh/α   predicted    -0.5025444E-05 ( -49.11%)
   displ. norm   :     0.0694039 α      lambda       -0.5959858E-05
   maximum displ.:     0.0654499 α      in ANC's #1, #4, #6, ...
 * RMSD in coord.:     0.6776978 α      energy gain  -0.7003196E-02 Eh

generating ANC from exact Hessian ...
Using Lindh-Hessian (1995)
 Shifting diagonal of input Hessian by    8.9715032127447858E-003
 Lowest  eigenvalues of input Hessian
    0.000000    0.000000    0.000000    0.000000    0.000000    0.000000
    0.010000    0.010989    0.011562    0.014844    0.016413    0.020966
    0.021714    0.027146    0.031501    0.034620    0.037358    0.039521
 Highest eigenvalues
    1.967963    2.028816    2.118772    2.141703    2.241060    2.431090


........................................................................
.............................. CYCLE   21 ..............................
........................................................................

 iter      E             dE          RMSdq      gap      omega  full diag
   1    -50.4682199 -0.504682E+02  0.338E-02    1.91       0.0  T
   2    -50.4682200 -0.146334E-06  0.199E-02    1.91       1.0  T
   3    -50.4682198  0.251571E-06  0.307E-03    1.91       6.8  T
   4    -50.4682201 -0.302218E-06  0.683E-04    1.91      30.5  T
   5    -50.4682201 -0.595023E-08  0.361E-04    1.91      57.7  T
     SCC iter.                  ...        0 min,  0.008 sec
     gradient                   ...        0 min,  0.003 sec
 * total energy  :   -49.8719082 Eh     change       -0.5463474E-05 Eh
   gradient norm :     0.0013089 Eh/α   predicted     0.0000000E+00 (-100.00%)
   displ. norm   :     0.0218364 α      lambda       -0.3914367E-05
   maximum displ.:     0.0157052 α      in ANC's #2, #1, #4, ...

........................................................................
.............................. CYCLE   22 ..............................
........................................................................

 iter      E             dE          RMSdq      gap      omega  full diag
   1    -50.4686156 -0.504686E+02  0.120E-02    1.91       0.0  T
   2    -50.4686156 -0.553348E-07  0.701E-03    1.91       3.0  T
   3    -50.4686156  0.364630E-07  0.141E-03    1.91      14.8  T
   4    -50.4686157 -0.468221E-07  0.396E-04    1.91      52.7  T
   5    -50.4686157 -0.253972E-08  0.211E-04    1.91      98.8  T
     SCC iter.                  ...        0 min,  0.004 sec
     gradient                   ...        0 min,  0.003 sec
 * total energy  :   -49.8719125 Eh     change       -0.4236189E-05 Eh
   gradient norm :     0.0004238 Eh/α   predicted    -0.2390593E-05 ( -43.57%)
   displ. norm   :     0.0274568 α      lambda       -0.2633859E-05
   maximum displ.:     0.0200103 α      in ANC's #2, #1, #3, ...

   *** GEOMETRY OPTIMIZATION CONVERGED AFTER 22 ITERATIONS ***

------------------------------------------------------------------------
 total energy gain   :        -0.0070129 Eh       -4.4007 kcal/mol
 total RMSD          :         0.6808133 a0        0.3603 Å
 total power (kW/mol):        -0.8369252 (step)  -77.1466 (real)
------------------------------------------------------------------------

 ANCopt (total)                0 d,  0 h,  0 min,  0.239 sec
 optimizer setup                ...        0 min,  0.000 sec (  0.035%)
 model hessian                  ...        0 min,  0.005 sec (  2.278%)
 ANC generation                 ...        0 min,  0.001 sec (  0.331%)
 coordinate transformation      ...        0 min,  0.000 sec (  0.076%)
 single point calculation       ...        0 min,  0.226 sec ( 94.779%)
 optimization log               ...        0 min,  0.003 sec (  1.130%)
 hessian update                 ...        0 min,  0.001 sec (  0.240%)
 rational function              ...        0 min,  0.002 sec (  0.630%)

================
 final structure:
================
23
 xtb: 6.7.1 (edcfbbe)
N            1.18844144081798        0.34605583864056        0.50039476065004
C            1.08954052943665       -0.93433567915460        0.14228804580061
C           -0.16144088697917       -1.49535382117067       -0.13506307117548
C           -1.26071350114142       -0.64974766281335       -0.03920548080758
N           -1.13974936729757        0.63050462830444        0.29742098456317
C            0.07989284364669        1.05611569361039        0.55660100036368
C           -2.65094967857718       -1.13328584741350       -0.31541054207640
O           -3.61476561708324       -0.43307434785703       -0.44121140055401
O           -2.70505573667216       -2.47109812564005       -0.41572650182957
C            2.34052715933848       -1.69973638536004        0.07699264718804
C            2.46341490523338       -2.85025980512673       -0.69980339585739
C            3.66157341680002       -3.53713746814229       -0.74009685186111
C            4.73786708624990       -3.08191470469655        0.00064244614601
C            4.63681063258193       -1.93146431805233        0.77903705269942
C            3.43765698096202       -1.24339633939584        0.80670264800225
Cl           5.99018633822485       -1.37658633838174        1.69064830585103
F            5.89188429082358       -3.76252568082339       -0.04344488500240
H           -0.28754699994143       -2.53305606325054       -0.39105840131118
H            0.18245459163836        2.09475107472470        0.84253049946650
H           -3.61826004926561       -2.75153381641543       -0.58779581732027
H            1.63553417010965       -3.20209486604420       -1.29435549597898
H            3.77957238881011       -4.42515924977509       -1.34063349352578
H            3.33752506228381       -0.34466671576574        1.39339694656909

 Bond Distances (Angstroems)
 ---------------------------
N1-C2=1.3332         N1-C6=1.3177         C2-N1=1.3332         C2-C3=1.3988         C2-C10=1.4680        C3-C2=1.3988         
C3-C4=1.3902         C3-H18=1.0762        C4-C3=1.3902         C4-N5=1.3293         C4-C7=1.4976         N5-C4=1.3293         
N5-C6=1.3175         C6-N1=1.3177         C6-N5=1.3175         C6-H19=1.0821        C7-C4=1.4976         C7-O8=1.1979         
C7-O9=1.3427         O8-C7=1.1979         O9-C7=1.3427         O9-H20=0.9707        C10-C2=1.4680        C10-C11=1.3936       
C10-C15=1.3944       C11-C10=1.3936       C11-C12=1.3817       C11-H21=1.0783       C12-C11=1.3817       C12-C13=1.3836       
C12-H22=1.0785       C13-C12=1.3836       C13-C14=1.3927       C13-F17=1.3405       C14-C13=1.3927       C14-C15=1.3828       
C14-Cl16=1.7235      C15-C10=1.3944       C15-C14=1.3828       C15-H23=1.0779       Cl16-C14=1.7235      F17-C13=1.3405       
H18-C3=1.0762        H19-C6=1.0821        H20-O9=0.9707        H21-C11=1.0783       H22-C12=1.0785       H23-C15=1.0779       
 C  H  Rav=1.0786 sigma=0.0019  Rmin=1.0762  Rmax=1.0821     5
 C  C  Rav=1.4083 sigma=0.0382  Rmin=1.3817  Rmax=1.4976    10
 N  C  Rav=1.3244 sigma=0.0070  Rmin=1.3175  Rmax=1.3332     4
 O  H  Rav=0.9707 sigma=0.0000  Rmin=0.9707  Rmax=0.9707     1
 O  C  Rav=1.2703 sigma=0.0724  Rmin=1.1979  Rmax=1.3427     2
 F  C  Rav=1.3405 sigma=0.0000  Rmin=1.3405  Rmax=1.3405     1
 Cl C  Rav=1.7235 sigma=0.0000  Rmin=1.7235  Rmax=1.7235     1

 selected bond angles (degree)
 --------------------
C6-N1-C2=117.81                C3-C2-N1=120.32                C10-C2-N1=116.71               C10-C2-C3=122.97               
C4-C3-C2=116.71                H18-C3-C2=122.59               H18-C3-C4=120.68               N5-C4-C3=122.10                
C7-C4-C3=121.66                C7-C4-N5=116.24                C6-N5-C4=116.43                N5-C6-N1=126.61                
H19-C6-N1=116.66               H19-C6-N5=116.73               O8-C7-C4=125.28                O9-C7-C4=111.89                
O9-C7-O8=122.83                H20-O9-C7=109.82               C11-C10-C2=122.03              C15-C10-C2=118.46              
C15-C10-C11=119.50             

 selected dihedral angles (degree)
 ---------------------------------
C3-C2-N1-C6=358.76            C10-C2-N1-C6=179.52           C4-C3-C2-N1=  1.09            C4-C3-C2-C10=180.28           
H18-C3-C2-N1=182.36           H18-C3-C2-C10=  1.55          N5-C4-C3-C2=  0.06            N5-C4-C3-H18=178.81           
C7-C4-C3-C2=179.85            C7-C4-C3-H18=358.60           C6-N5-C4-C3=359.03            C6-N5-C4-C7=179.23            
N5-C6-N1-C2=  0.27            H19-C6-N1-C2=180.41           N1-C6-N5-C4=  0.85            H19-C6-N5-C4=180.70           
O8-C7-C4-C3=191.32            O8-C7-C4-N5= 11.12            O9-C7-C4-C3= 11.06            O9-C7-C4-N5=190.86            
H20-O9-C7-C4=179.58           H20-O9-C7-O8=359.32           C11-C10-C2-N1=202.89          C11-C10-C2-C3= 23.68          
C15-C10-C2-N1= 22.14          C15-C10-C2-C3=202.92          
           -------------------------------------------------
          |                Final Singlepoint                |
           -------------------------------------------------

          ...................................................
          :                      SETUP                      :
          :.................................................:
          :  # basis functions                  80          :
          :  # atomic orbitals                  79          :
          :  # shells                           41          :
          :  # electrons                        86          :
          :  max. iterations                   250          :
          :  Hamiltonian                  GFN2-xTB          :
          :  restarted?                      false          :
          :  GBSA solvation                  false          :
          :  PC potential                    false          :
          :  electronic temp.          300.0000000     K    :
          :  accuracy                    1.0000000          :
          :  -> integral cutoff          0.2500000E+02      :
          :  -> integral neglect         0.1000000E-07      :
          :  -> SCF convergence          0.1000000E-05 Eh   :
          :  -> wf. convergence          0.1000000E-03 e    :
          :  Broyden damping             0.4000000          :
          :  net charge                          0          :
          :  unpaired electrons                  0          :
          ...................................................

 iter      E             dE          RMSdq      gap      omega  full diag
   1    -50.4686157 -0.504686E+02  0.137E-04    1.91       0.0  T
   2    -50.4686157 -0.640483E-10  0.107E-04    1.91     195.3  T
   3    -50.4686157 -0.343263E-10  0.870E-05    1.91     239.6  T

   *** convergence criteria satisfied after 3 iterations ***

         #    Occupation            Energy/Eh            Energy/eV
      -------------------------------------------------------------
         1        2.0000           -1.0685733             -29.0774
       ...           ...                  ...                  ...
        37        2.0000           -0.4622905             -12.5796
        38        2.0000           -0.4447895             -12.1033
        39        2.0000           -0.4353963             -11.8477
        40        2.0000           -0.4329264             -11.7805
        41        2.0000           -0.4220216             -11.4838
        42        2.0000           -0.4176941             -11.3660
        43        2.0000           -0.3884578             -10.5705 (HOMO)
        44                         -0.3181060              -8.6561 (LUMO)
        45                         -0.2941733              -8.0049
        46                         -0.2664207              -7.2497
        47                         -0.2497003              -6.7947
        48                         -0.2187379              -5.9522
       ...                                ...                  ...
        79                          0.6812164              18.5368
      -------------------------------------------------------------
                  HL-Gap            0.0703519 Eh            1.9144 eV
             Fermi-level           -0.3532819 Eh           -9.6133 eV

 SCC (total)                   0 d,  0 h,  0 min,  0.007 sec
 SCC setup                      ...        0 min,  0.000 sec (  1.866%)
 Dispersion                     ...        0 min,  0.000 sec (  1.228%)
 classical contributions        ...        0 min,  0.000 sec (  0.202%)
 integral evaluation            ...        0 min,  0.001 sec ( 16.173%)
 iterations                     ...        0 min,  0.003 sec ( 38.545%)
 molecular gradient             ...        0 min,  0.003 sec ( 40.609%)
 printout                       ...        0 min,  0.000 sec (  1.163%)

         :::::::::::::::::::::::::::::::::::::::::::::::::::::
         ::                     SUMMARY                     ::
         :::::::::::::::::::::::::::::::::::::::::::::::::::::
         :: total energy             -49.871912478800 Eh    ::
         :: gradient norm              0.000423789778 Eh/a0 ::
         :: HOMO-LUMO gap              1.914371363389 eV    ::
         ::.................................................::
         :: SCC energy               -50.468718328729 Eh    ::
         :: -> isotropic ES            0.074232068146 Eh    ::
         :: -> anisotropic ES          0.002079451654 Eh    ::
         :: -> anisotropic XC          0.017739084063 Eh    ::
         :: -> dispersion             -0.025116229297 Eh    ::
         :: repulsion energy           0.596805849929 Eh    ::
         :: add. restraining           0.000000000000 Eh    ::
         :: total charge              -0.000000000000 e     ::
         :::::::::::::::::::::::::::::::::::::::::::::::::::::

           -------------------------------------------------
          |                Property Printout                |
           -------------------------------------------------

    * Orbital Energies and Occupations

         #    Occupation            Energy/Eh            Energy/eV
      -------------------------------------------------------------
         1        2.0000           -1.0685733             -29.0774
       ...           ...                  ...                  ...
        31        2.0000           -0.5029180             -13.6851
        32        2.0000           -0.4976435             -13.5416
        33        2.0000           -0.4884192             -13.2906
        34        2.0000           -0.4836987             -13.1621
        35        2.0000           -0.4738361             -12.8937
        36        2.0000           -0.4653881             -12.6639
        37        2.0000           -0.4622905             -12.5796
        38        2.0000           -0.4447895             -12.1033
        39        2.0000           -0.4353963             -11.8477
        40        2.0000           -0.4329264             -11.7805
        41        2.0000           -0.4220216             -11.4838
        42        2.0000           -0.4176941             -11.3660
        43        2.0000           -0.3884578             -10.5705 (HOMO)
        44                         -0.3181060              -8.6561 (LUMO)
        45                         -0.2941733              -8.0049
        46                         -0.2664207              -7.2497
        47                         -0.2497003              -6.7947
        48                         -0.2187379              -5.9522
        49                         -0.1542140              -4.1964
        50                         -0.1484993              -4.0409
        51                         -0.1137853              -3.0963
        52                         -0.0015236              -0.0415
        53                          0.0054093               0.1472
        54                          0.0055044               0.1498
       ...                                ...                  ...
        79                          0.6812164              18.5368
      -------------------------------------------------------------
                  HL-Gap            0.0703519 Eh            1.9144 eV
             Fermi-level           -0.3532819 Eh           -9.6133 eV

     #   Z          covCN         q      C6AA      α(0)
     1   7 N        1.842    -0.229    26.850     7.679
     2   6 C        2.977     0.117    25.421     8.270
     3   6 C        2.910    -0.048    29.181     8.858
     4   6 C        2.983     0.088    26.037     8.370
     5   7 N        1.839    -0.212    26.439     7.620
     6   6 C        2.911     0.153    24.685     8.147
     7   6 C        2.695     0.354    20.994     7.499
     8   8 O        0.856    -0.364    20.981     6.141
     9   8 O        1.660    -0.378    20.425     6.101
    10   6 C        2.979     0.007    27.859     8.658
    11   6 C        2.924    -0.034    28.853     8.809
    12   6 C        2.917    -0.047    29.158     8.855
    13   6 C        2.816     0.168    24.374     8.089
    14   6 C        2.880     0.084    26.118     8.378
    15   6 C        2.962    -0.037    28.914     8.820
    16  17 Cl       0.960    -0.130   103.206    15.542
    17   9 F        0.787    -0.195    11.181     3.950
    18   1 H        0.926     0.067     2.118     2.276
    19   1 H        0.925     0.064     2.155     2.296
    20   1 H        0.804     0.336     0.621     1.238
    21   1 H        0.926     0.062     2.177     2.307
    22   1 H        0.926     0.078     2.004     2.214
    23   1 H        0.926     0.095     1.832     2.117

 Mol. C6AA /au·bohr⁶  :       9447.592069
 Mol. C8AA /au·bohr⁸  :     249578.256241
 Mol. α(0) /au        :        152.234747


Wiberg/Mayer (AO) data.
largest (>0.10) Wiberg bond orders for each atom

 ---------------------------------------------------------------------------
     #   Z sym  total        # sym  WBO       # sym  WBO       # sym  WBO
 ---------------------------------------------------------------------------
     1   7 N    3.067 --     6 C    1.437     2 C    1.382
     2   6 C    3.976 --     1 N    1.382     3 C    1.364    10 C    1.057
     3   6 C    3.986 --     4 C    1.413     2 C    1.364    18 H    0.961
                             6 C    0.106
     4   6 C    3.979 --     3 C    1.413     5 N    1.391     7 C    0.967
     5   7 N    3.064 --     6 C    1.432     4 C    1.391
     6   6 C    3.962 --     1 N    1.437     5 N    1.432    19 H    0.954
                             3 C    0.106
     7   6 C    3.921 --     8 O    1.786     9 O    1.122     4 C    0.967
     8   8 O    2.078 --     7 C    1.786     9 O    0.181
     9   8 O    2.196 --     7 C    1.122    20 H    0.862     8 O    0.181
    10   6 C    3.989 --    11 C    1.379    15 C    1.376     2 C    1.057
    11   6 C    3.989 --    12 C    1.449    10 C    1.379    21 H    0.964
    12   6 C    3.986 --    11 C    1.449    13 C    1.391    22 H    0.963
                            15 C    0.101
    13   6 C    3.889 --    12 C    1.391    14 C    1.340    17 F    0.982
    14   6 C    3.930 --    15 C    1.420    13 C    1.340    16 Cl   1.001
    15   6 C    3.982 --    14 C    1.420    10 C    1.376    23 H    0.958
                            12 C    0.101
    16  17 Cl   1.151 --    14 C    1.001
    17   9 F    1.120 --    13 C    0.982
    18   1 H    0.996 --     3 C    0.961
    19   1 H    0.995 --     6 C    0.954
    20   1 H    0.886 --     9 O    0.862
    21   1 H    0.996 --    11 C    0.964
    22   1 H    0.993 --    12 C    0.963
    23   1 H    0.991 --    15 C    0.958
 ---------------------------------------------------------------------------

Topologies differ in total number of bonds
Writing topology from bond orders to xtbtopo.mol

molecular dipole:
                 x           y           z       tot (Debye)
 q only:       -0.396      -0.877      -0.386
   full:       -0.310      -1.243      -0.378       3.397
molecular quadrupole (traceless):
                xx          xy          yy          xz          yz          zz
 q only:      -23.294      15.117      15.708      -5.205       5.566       7.585
  q+dip:      -20.924      18.756      14.558      -1.862       7.686       6.367
   full:      -22.824      19.580      12.984      -2.827       5.180       9.840

           -------------------------------------------------
          |                Geometry Summary                 |
           -------------------------------------------------

      molecular mass/u    :      252.6292964
   center of mass at/Å    :        1.7798071      -1.4824771       0.2390275
  moments of inertia/u·Å² :        0.4535671E+03   0.2804746E+04   0.3203402E+04
rotational constants/cm⁻¹ :        0.3716679E-01   0.6010396E-02   0.5262416E-02

 * 22 selected distances

     #   Z          #   Z                                           value/Å
     1   7 N        2   6 C                                       1.3332009
     2   6 C        3   6 C                                       1.3987923
     3   6 C        4   6 C                                       1.3901939
     4   6 C        5   7 N                                       1.3292840
     1   7 N        6   6 C                                       1.3176587
     5   7 N        6   6 C                                       1.3175153
     7   6 C        8   8 O                                       1.1979413
     7   6 C        9   8 O                                       1.3426588
    10   6 C       11   6 C                                       1.3936348
    11   6 C       12   6 C                                       1.3816688
    12   6 C       13   6 C                                       1.3835935
    13   6 C       14   6 C                                       1.3927121
    10   6 C       15   6 C                                       1.3944236
    14   6 C       15   6 C                                       1.3828134
    14   6 C       16  17 Cl                                      1.7235286 (max)
    13   6 C       17   9 F                                       1.3404966
     3   6 C       18   1 H                                       1.0762261
     6   6 C       19   1 H                                       1.0821452
     9   8 O       20   1 H                                       0.9706669 (min)
    11   6 C       21   1 H                                       1.0782703
    12   6 C       22   1 H                                       1.0784947
    15   6 C       23   1 H                                       1.0779387

 * 7 distinct bonds (by element types)

   Z      Z             #   av. dist./Å        max./Å        min./Å
   1 H    6 C           5     1.0786150     1.0821452     1.0762261
   6 C    6 C           8     1.3897290     1.3987923     1.3816688
   6 C    7 N           4     1.3244147     1.3332009     1.3175153
   1 H    8 O           1     0.9706669     0.9706669     0.9706669
   6 C    8 O           2     1.2703001     1.3426588     1.1979413
   6 C    9 F           1     1.3404966     1.3404966     1.3404966
   6 C   17 Cl          1     1.7235286     1.7235286     1.7235286


optimized geometry written to: xtbopt.xyz


           -------------------------------------------------
          | TOTAL ENERGY              -49.871912478800 Eh   |
          | GRADIENT NORM               0.000423789778 Eh/α |
          | HOMO-LUMO GAP               1.914371363389 eV   |
           -------------------------------------------------

------------------------------------------------------------------------
 * finished run on 2024/12/17 at 14:08:19.420     
------------------------------------------------------------------------
 total:
 * wall-time:     0 d,  0 h,  0 min,  0.283 sec
 *  cpu-time:     0 d,  0 h,  0 min,  2.220 sec
 * ratio c/w:     7.835 speedup
 SCF:
 * wall-time:     0 d,  0 h,  0 min,  0.019 sec
 *  cpu-time:     0 d,  0 h,  0 min,  0.155 sec
 * ratio c/w:     7.935 speedup
 ANC optimizer:
 * wall-time:     0 d,  0 h,  0 min,  0.247 sec
 *  cpu-time:     0 d,  0 h,  0 min,  1.942 sec
 * ratio c/w:     7.873 speedup

