      -----------------------------------------------------------      
     |                   =====================                   |     
     |                           x T B                           |     
     |                   =====================                   |     
     |                         S. Grimme                         |     
     |          Mulliken Center for Theoretical Chemistry        |     
     |                    University of Bonn                     |     
      -----------------------------------------------------------      

   * xtb version 6.7.1 (edcfbbe) compiled by 'conda@3ef47c1a292c' on 2024-11-25

   xtb is free software: you can redistribute it and/or modify it under
   the terms of the GNU Lesser General Public License as published by
   the Free Software Foundation, either version 3 of the License, or
   (at your option) any later version.
   
   xtb is distributed in the hope that it will be useful,
   but WITHOUT ANY WARRANTY; without even the implied warranty of
   MERCHANTABILITY or FITNESS FOR A PARTICULAR PURPOSE.  See the
   GNU Lesser General Public License for more details.
   
   Cite this work as:
   * C. Bannwarth, E. Caldeweyher, S. Ehlert, A. Hansen, P. Pracht,
     J. Seibert, S. Spicher, S. Grimme, WIREs Comput. Mol. Sci., 2020, 11,
     e01493. DOI: 10.1002/wcms.1493
   
   for GFN2-xTB:
   * C. Bannwarth, S. Ehlert and S. Grimme., J. Chem. Theory Comput., 2019,
     15, 1652-1671. DOI: 10.1021/acs.jctc.8b01176
   for GFN1-xTB:
   * S. Grimme, C. Bannwarth, P. Shushkov, J. Chem. Theory Comput., 2017,
     13, 1989-2009. DOI: 10.1021/acs.jctc.7b00118
   for GFN0-xTB:
   * P. Pracht, E. Caldeweyher, S. Ehlert, S. Grimme, ChemRxiv, 2019, preprint.
     DOI: 10.26434/chemrxiv.8326202.v1
   for GFN-FF:
   * S. Spicher and S. Grimme, Angew. Chem. Int. Ed., 2020, 59, 15665-15673.
     DOI: 10.1002/anie.202004239
   
   for ALPB and GBSA implicit solvation:
   * S. Ehlert, M. Stahn, S. Spicher, S. Grimme, J. Chem. Theory Comput.,
     2021, 17, 4250-4261. DOI: 10.1021/acs.jctc.1c00471
   
   for ddCOSMO and CPCM-X implicit solvation:
   * M. Stahn, S. Ehlert, S. Grimme, J. Phys. Chem. A,
     2023, XX, XXXX-XXXX. DOI: 10.1021/acs.jpca.3c04382
   
   for DFT-D4:
   * E. Caldeweyher, C. Bannwarth and S. Grimme, J. Chem. Phys., 2017,
     147, 034112. DOI: 10.1063/1.4993215
   * E. Caldeweyher, S. Ehlert, A. Hansen, H. Neugebauer, S. Spicher,
     C. Bannwarth and S. Grimme, J. Chem. Phys., 2019, 150, 154122.
     DOI: 10.1063/1.5090222
   * E. Caldeweyher, J.-M. Mewes, S. Ehlert and S. Grimme, Phys. Chem. Chem. Phys.
     2020, 22, 8499-8512. DOI: 10.1039/D0CP00502A
   
   for sTDA-xTB:
   * S. Grimme and C. Bannwarth, J. Chem. Phys., 2016, 145, 054103.
     DOI: 10.1063/1.4959605
   
   in the mass-spec context:
   * V. Asgeirsson, C. Bauer and S. Grimme, Chem. Sci., 2017, 8, 4879.
     DOI: 10.1039/c7sc00601b
   * J. Koopman and S. Grimme, ACS Omega 2019, 4, 12, 15120-15133.
     DOI: 10.1021/acsomega.9b02011
   
   for metadynamics refer to:
   * S. Grimme, J. Chem. Theory Comput., 2019, 155, 2847-2862
     DOI: 10.1021/acs.jctc.9b00143
   
   for SPH calculations refer to:
   * S. Spicher and S. Grimme, J. Chem. Theory Comput., 2021, 17, 1701-1714
     DOI: 10.1021/acs.jctc.0c01306
   
   for ONIOM refer to:
   * C. Plett, A. Katbashev, S. Ehlert, S. Grimme, M. Bursch,
     Phys. Chem. Chem. Phys., 2023, 25, 17860-17868. DOI: 10.1039/D3CP02178E
   
   for DIPRO refer to:
   * J. Kohn, N. Gildemeister, S. Grimme, D. Fazzi, A. Hansen,
     J. Chem. Phys., 2023, just accepted.
   
   for PTB refer to:
   * S. Grimme, M. Mueller, A. Hansen, J. Chem. Phys., 2023, 158, 124111.
     DOI: 10.1063/5.0137838
   
   with help from (in alphabetical order)
   P. Atkinson, C. Bannwarth, F. Bohle, G. Brandenburg, E. Caldeweyher
   M. Checinski, S. Dohm, S. Ehlert, S. Ehrlich, I. Gerasimov, C. Hölzer
   A. Katbashev, J. Kohn, J. Koopman, C. Lavigne, S. Lehtola, F. März, M. Müller,
   F. Musil, H. Neugebauer, J. Pisarek, C. Plett, P. Pracht, F. Pultar,
   J. Seibert, P. Shushkov, S. Spicher, M. Stahn, M. Steiner, T. Strunk,
   J. Stückrath, T. Rose, and J. Unsleber
   
 * started run on 2024/12/17 at 14:08:05.797     
   ID    Z sym.   atoms
    1    7 N      1, 5
    2    6 C      2-4, 6, 7, 10-15, 18
    3    8 O      8, 9, 17
    4   17 Cl     16
    5    1 H      19-27

           -------------------------------------------------
          |                Calculation Setup                |
           -------------------------------------------------

          program call               : xtb K012.xyz --opt --namespace K012
          calculation namespace      : K012
          coordinate file            : K012.xyz
          omp threads                :                     8


           -------------------------------------------------
          |                 G F N 2 - x T B                 |
           -------------------------------------------------

        Reference                      10.1021/acs.jctc.8b01176
      * Hamiltonian:
        H0-scaling (s, p, d)           1.850000    2.230000    2.230000
        zeta-weighting                 0.500000
      * Dispersion:
        s8                             2.700000
        a1                             0.520000
        a2                             5.000000
        s9                             5.000000
      * Repulsion:
        kExp                           1.500000    1.000000
        rExp                           1.000000
      * Coulomb:
        alpha                          2.000000
        third order                    shell-resolved
        anisotropic                    true
        a3                             3.000000
        a5                             4.000000
        cn-shift                       1.200000
        cn-exp                         4.000000
        max-rad                        5.000000


          ...................................................
          :                      SETUP                      :
          :.................................................:
          :  # basis functions                  87          :
          :  # atomic orbitals                  86          :
          :  # shells                           46          :
          :  # electrons                        92          :
          :  max. iterations                   250          :
          :  Hamiltonian                  GFN2-xTB          :
          :  restarted?                      false          :
          :  GBSA solvation                  false          :
          :  PC potential                    false          :
          :  electronic temp.          300.0000000     K    :
          :  accuracy                    1.0000000          :
          :  -> integral cutoff          0.2500000E+02      :
          :  -> integral neglect         0.1000000E-07      :
          :  -> SCF convergence          0.1000000E-05 Eh   :
          :  -> wf. convergence          0.1000000E-03 e    :
          :  Broyden damping             0.4000000          :
          :  net charge                          0          :
          :  unpaired electrons                  0          :
          ...................................................

 iter      E             dE          RMSdq      gap      omega  full diag
   1    -53.4118141 -0.534118E+02  0.499E+00    2.27       0.0  T
   2    -53.4674313 -0.556172E-01  0.293E+00    2.22       1.0  T
   3    -53.4635093  0.392201E-02  0.135E+00    1.97       1.0  T
   4    -53.4766295 -0.131203E-01  0.316E-01    1.88       1.0  T
   5    -53.4787337 -0.210421E-02  0.118E-01    1.86       1.0  T
   6    -53.4789493 -0.215592E-03  0.584E-02    1.85       1.0  T
   7    -53.4789618 -0.125133E-04  0.342E-02    1.86       1.0  T
   8    -53.4789748 -0.129537E-04  0.217E-02    1.86       1.0  T
   9    -53.4789783 -0.351574E-05  0.145E-02    1.86       1.3  T
  10    -53.4789803 -0.196142E-05  0.717E-03    1.86       2.7  T
  11    -53.4789808 -0.569438E-06  0.370E-03    1.86       5.2  T
  12    -53.4789810 -0.126410E-06  0.175E-03    1.86      11.0  T
  13    -53.4789810 -0.249370E-07  0.111E-03    1.86      17.4  T
  14    -53.4789810 -0.102831E-07  0.785E-04    1.86      24.5  T
  15    -53.4789810 -0.554500E-08  0.456E-04    1.86      42.2  T

   *** convergence criteria satisfied after 15 iterations ***

         #    Occupation            Energy/Eh            Energy/eV
      -------------------------------------------------------------
         1        2.0000           -1.0670716             -29.0365
       ...           ...                  ...                  ...
        40        2.0000           -0.4482293             -12.1969
        41        2.0000           -0.4395360             -11.9604
        42        2.0000           -0.4265969             -11.6083
        43        2.0000           -0.4194578             -11.4140
        44        2.0000           -0.4161202             -11.3232
        45        2.0000           -0.3978150             -10.8251
        46        2.0000           -0.3840538             -10.4506 (HOMO)
        47                         -0.3156507              -8.5893 (LUMO)
        48                         -0.2826492              -7.6913
        49                         -0.2568058              -6.9880
        50                         -0.2441789              -6.6444
        51                         -0.2185661              -5.9475
       ...                                ...                  ...
        86                          0.6365451              17.3213
      -------------------------------------------------------------
                  HL-Gap            0.0684031 Eh            1.8613 eV
             Fermi-level           -0.3498523 Eh           -9.5200 eV

 SCC (total)                   0 d,  0 h,  0 min,  0.024 sec
 SCC setup                      ...        0 min,  0.000 sec (  0.647%)
 Dispersion                     ...        0 min,  0.000 sec (  1.123%)
 classical contributions        ...        0 min,  0.000 sec (  0.206%)
 integral evaluation            ...        0 min,  0.003 sec ( 11.128%)
 iterations                     ...        0 min,  0.017 sec ( 72.658%)
 molecular gradient             ...        0 min,  0.003 sec ( 13.758%)
 printout                       ...        0 min,  0.000 sec (  0.410%)

         :::::::::::::::::::::::::::::::::::::::::::::::::::::
         ::                     SUMMARY                     ::
         :::::::::::::::::::::::::::::::::::::::::::::::::::::
         :: total energy             -52.867693215668 Eh    ::
         :: gradient norm              0.079723305931 Eh/a0 ::
         :: HOMO-LUMO gap              1.861343747919 eV    ::
         ::.................................................::
         :: SCC energy               -53.479127478752 Eh    ::
         :: -> isotropic ES            0.077671371571 Eh    ::
         :: -> anisotropic ES          0.005442093425 Eh    ::
         :: -> anisotropic XC          0.023727242402 Eh    ::
         :: -> dispersion             -0.028838759728 Eh    ::
         :: repulsion energy           0.611434263084 Eh    ::
         :: add. restraining           0.000000000000 Eh    ::
         :: total charge              -0.000000000000 e     ::
         :::::::::::::::::::::::::::::::::::::::::::::::::::::

      ----------------------------------------------------------- 
     |                   =====================                   |
     |                        A N C O P T                        |
     |                   =====================                   |
     |               Approximate Normal Coordinate               |
     |                Rational Function Optimizer                |
      ----------------------------------------------------------- 
      ----------------------------------------------------------- 
     |                   =====================                   |
     |                        A N C O P T                        |
     |                   =====================                   |
     |               Approximate Normal Coordinate               |
     |                Rational Function Optimizer                |
      ----------------------------------------------------------- 

          ...................................................
          :                      SETUP                      :
          :.................................................:
          :   optimization level            normal          :
          :   max. optcycles                   200          :
          :   ANC micro-cycles                  20          :
          :   degrees of freedom                75          :
          :.................................................:
          :   RF solver                   davidson          :
          :   write xtbopt.log                true          :
          :   linear?                        false          :
          :   energy convergence         0.5000000E-05 Eh   :
          :   grad. convergence          0.1000000E-02 Eh/α :
          :   maxmium RF displ.          1.0000000          :
          :   Hlow (freq-cutoff)         0.1000000E-01      :
          :   Hmax (freq-cutoff)         5.0000000          :
          :   S6 in model hess.         20.0000000          :
          ...................................................

generating ANC from exact Hessian ...
Using Lindh-Hessian (1995)
 Shifting diagonal of input Hessian by    9.4474190033932304E-003
 Lowest  eigenvalues of input Hessian
    0.000000    0.000000    0.000000    0.000000    0.000000    0.000000
    0.010000    0.010605    0.011202    0.013086    0.014466    0.015407
    0.016061    0.019009    0.020244    0.022243    0.026275    0.030772
 Highest eigenvalues
    1.935445    1.991626    2.036173    2.074965    2.122982    2.331289


........................................................................
.............................. CYCLE    1 ..............................
........................................................................

 iter      E             dE          RMSdq      gap      omega  full diag
   1    -53.4789810 -0.534790E+02  0.253E-04    1.86       0.0  T
   2    -53.4789810 -0.298719E-09  0.194E-04    1.86      99.1  T
   3    -53.4789810 -0.158295E-09  0.158E-04    1.86     121.8  T
     SCC iter.                  ...        0 min,  0.003 sec
     gradient                   ...        0 min,  0.003 sec
 * total energy  :   -52.8676932 Eh     change       -0.2409841E-08 Eh
   gradient norm :     0.0797268 Eh/α   predicted     0.0000000E+00 (-100.00%)
   displ. norm   :     0.1928343 α      lambda       -0.8260295E-02
   maximum displ.:     0.0848386 α      in ANC's #37, #19, #13, ...

........................................................................
.............................. CYCLE    2 ..............................
........................................................................

 iter      E             dE          RMSdq      gap      omega  full diag
   1    -53.5132996 -0.535133E+02  0.166E-01    1.92       0.0  T
   2    -53.5133748 -0.751240E-04  0.107E-01    1.91       1.0  T
   3    -53.5133661  0.864503E-05  0.565E-02    1.91       1.0  T
   4    -53.5134051 -0.389753E-04  0.129E-02    1.91       1.5  T
   5    -53.5134077 -0.257350E-05  0.439E-03    1.91       4.4  T
   6    -53.5134079 -0.207242E-06  0.259E-03    1.91       7.4  T
   7    -53.5134079 -0.508322E-07  0.145E-03    1.91      13.3  T
   8    -53.5134079 -0.206862E-07  0.955E-04    1.91      20.2  T
   9    -53.5134080 -0.747486E-08  0.580E-04    1.91      33.2  T
     SCC iter.                  ...        0 min,  0.009 sec
     gradient                   ...        0 min,  0.003 sec
 * total energy  :   -52.8732683 Eh     change       -0.5575072E-02 Eh
   gradient norm :     0.0285993 Eh/α   predicted    -0.4284306E-02 ( -23.15%)
   displ. norm   :     0.1660311 α      lambda       -0.2064508E-02
   maximum displ.:     0.0544254 α      in ANC's #2, #32, #4, ...

........................................................................
.............................. CYCLE    3 ..............................
........................................................................

 iter      E             dE          RMSdq      gap      omega  full diag
   1    -53.5274267 -0.535274E+02  0.118E-01    1.94       0.0  T
   2    -53.5274579 -0.312169E-04  0.732E-02    1.93       1.0  T
   3    -53.5274532  0.473740E-05  0.421E-02    1.93       1.0  T
   4    -53.5274751 -0.219176E-04  0.725E-03    1.93       2.7  T
   5    -53.5274757 -0.674920E-06  0.327E-03    1.93       5.9  T
   6    -53.5274759 -0.133185E-06  0.186E-03    1.93      10.3  T
   7    -53.5274759 -0.219229E-07  0.972E-04    1.93      19.8  T
   8    -53.5274759 -0.805799E-08  0.615E-04    1.93      31.3  T
     SCC iter.                  ...        0 min,  0.008 sec
     gradient                   ...        0 min,  0.003 sec
 * total energy  :   -52.8744783 Eh     change       -0.1209990E-02 Eh
   gradient norm :     0.0090433 Eh/α   predicted    -0.1060822E-02 ( -12.33%)
   displ. norm   :     0.1286112 α      lambda       -0.3536558E-03
   maximum displ.:     0.0682641 α      in ANC's #2, #4, #3, ...

........................................................................
.............................. CYCLE    4 ..............................
........................................................................

 iter      E             dE          RMSdq      gap      omega  full diag
   1    -53.5275523 -0.535276E+02  0.704E-02    1.94       0.0  T
   2    -53.5275587 -0.639430E-05  0.416E-02    1.93       1.0  T
   3    -53.5275537  0.504518E-05  0.228E-02    1.93       1.0  T
   4    -53.5275621 -0.836764E-05  0.330E-03    1.93       5.8  T
   5    -53.5275621 -0.856821E-07  0.207E-03    1.93       9.3  T
   6    -53.5275622 -0.502299E-07  0.127E-03    1.93      15.1  T
   7    -53.5275622 -0.986712E-08  0.733E-04    1.93      26.2  T
   8    -53.5275622 -0.404712E-08  0.533E-04    1.93      36.1  T
     SCC iter.                  ...        0 min,  0.008 sec
     gradient                   ...        0 min,  0.003 sec
 * total energy  :   -52.8747520 Eh     change       -0.2736943E-03 Eh
   gradient norm :     0.0067083 Eh/α   predicted    -0.1797548E-03 ( -34.32%)
   displ. norm   :     0.2550605 α      lambda       -0.4118050E-03
   maximum displ.:     0.1430770 α      in ANC's #2, #4, #3, ...

........................................................................
.............................. CYCLE    5 ..............................
........................................................................

 iter      E             dE          RMSdq      gap      omega  full diag
   1    -53.5251452 -0.535251E+02  0.132E-01    1.94       0.0  T
   2    -53.5251578 -0.126095E-04  0.782E-02    1.93       1.0  T
   3    -53.5251387  0.190496E-04  0.350E-02    1.93       1.0  T
   4    -53.5251640 -0.252664E-04  0.514E-03    1.93       3.7  T
   5    -53.5251642 -0.158547E-06  0.322E-03    1.93       6.0  T
   6    -53.5251643 -0.997508E-07  0.197E-03    1.93       9.8  T
   7    -53.5251643 -0.284996E-07  0.117E-03    1.93      16.5  T
   8    -53.5251643 -0.960222E-08  0.876E-04    1.93      22.0  T
   9    -53.5251643 -0.815166E-08  0.392E-04    1.93      49.1  T
     SCC iter.                  ...        0 min,  0.012 sec
     gradient                   ...        0 min,  0.003 sec
 * total energy  :   -52.8750287 Eh     change       -0.2767515E-03 Eh
   gradient norm :     0.0054611 Eh/α   predicted    -0.2192997E-03 ( -20.76%)
   displ. norm   :     0.2177146 α      lambda       -0.2019405E-03
   maximum displ.:     0.1260808 α      in ANC's #2, #3, #4, ...

........................................................................
.............................. CYCLE    6 ..............................
........................................................................

 iter      E             dE          RMSdq      gap      omega  full diag
   1    -53.5239105 -0.535239E+02  0.111E-01    1.94       0.0  T
   2    -53.5239145 -0.396284E-05  0.651E-02    1.93       1.0  T
   3    -53.5239076  0.686513E-05  0.186E-02    1.94       1.0  T
   4    -53.5239163 -0.865290E-05  0.359E-03    1.93       5.4  T
   5    -53.5239163 -0.516248E-07  0.204E-03    1.93       9.4  T
   6    -53.5239164 -0.302322E-07  0.116E-03    1.93      16.6  T
   7    -53.5239164 -0.132744E-07  0.719E-04    1.93      26.8  T
   8    -53.5239164 -0.325031E-08  0.537E-04    1.93      35.8  T
     SCC iter.                  ...        0 min,  0.008 sec
     gradient                   ...        0 min,  0.003 sec
 * total energy  :   -52.8751853 Eh     change       -0.1565350E-03 Eh
   gradient norm :     0.0062991 Eh/α   predicted    -0.1057697E-03 ( -32.43%)
   displ. norm   :     0.2771482 α      lambda       -0.2478221E-03
   maximum displ.:     0.1588267 α      in ANC's #2, #3, #4, ...

........................................................................
.............................. CYCLE    7 ..............................
........................................................................

 iter      E             dE          RMSdq      gap      omega  full diag
   1    -53.5235100 -0.535235E+02  0.140E-01    1.94       0.0  T
   2    -53.5235135 -0.348258E-05  0.826E-02    1.93       1.0  T
   3    -53.5235107  0.277930E-05  0.129E-02    1.94       1.5  T
   4    -53.5235149 -0.419245E-05  0.410E-03    1.93       4.7  T
   5    -53.5235150 -0.686004E-07  0.194E-03    1.93       9.9  T
   6    -53.5235150 -0.261489E-07  0.103E-03    1.93      18.8  T
   7    -53.5235150 -0.106783E-07  0.682E-04    1.93      28.2  T
   8    -53.5235150 -0.300927E-08  0.473E-04    1.93      40.7  T
     SCC iter.                  ...        0 min,  0.008 sec
     gradient                   ...        0 min,  0.003 sec
 * total energy  :   -52.8753783 Eh     change       -0.1930114E-03 Eh
   gradient norm :     0.0074654 Eh/α   predicted    -0.1334287E-03 ( -30.87%)
   displ. norm   :     0.3135762 α      lambda       -0.2727677E-03
   maximum displ.:     0.1853174 α      in ANC's #2, #3, #4, ...

........................................................................
.............................. CYCLE    8 ..............................
........................................................................

 iter      E             dE          RMSdq      gap      omega  full diag
   1    -53.5241744 -0.535242E+02  0.157E-01    1.94       0.0  T
   2    -53.5241778 -0.344534E-05  0.924E-02    1.93       1.0  T
   3    -53.5241775  0.364269E-06  0.911E-03    1.93       2.1  T
   4    -53.5241791 -0.164006E-05  0.428E-03    1.93       4.5  T
   5    -53.5241792 -0.112375E-06  0.164E-03    1.93      11.8  T
   6    -53.5241792 -0.288367E-07  0.818E-04    1.93      23.5  T
   7    -53.5241792 -0.534089E-08  0.542E-04    1.93      35.5  T
     SCC iter.                  ...        0 min,  0.007 sec
     gradient                   ...        0 min,  0.003 sec
 * total energy  :   -52.8755813 Eh     change       -0.2030707E-03 Eh
   gradient norm :     0.0079088 Eh/α   predicted    -0.1497950E-03 ( -26.24%)
   displ. norm   :     0.2983619 α      lambda       -0.2308163E-03
   maximum displ.:     0.1794420 α      in ANC's #2, #3, #1, ...

........................................................................
.............................. CYCLE    9 ..............................
........................................................................

 iter      E             dE          RMSdq      gap      omega  full diag
   1    -53.5253827 -0.535254E+02  0.147E-01    1.93       0.0  T
   2    -53.5253857 -0.301283E-05  0.865E-02    1.93       1.0  T
   3    -53.5253840  0.167548E-05  0.104E-02    1.93       1.8  T
   4    -53.5253869 -0.284050E-05  0.393E-03    1.93       4.9  T
   5    -53.5253869 -0.818268E-07  0.166E-03    1.93      11.6  T
   6    -53.5253870 -0.409498E-07  0.710E-04    1.93      27.1  T
   7    -53.5253870 -0.405074E-08  0.419E-04    1.93      45.9  T
     SCC iter.                  ...        0 min,  0.007 sec
     gradient                   ...        0 min,  0.003 sec
 * total energy  :   -52.8757518 Eh     change       -0.1704898E-03 Eh
   gradient norm :     0.0060047 Eh/α   predicted    -0.1256828E-03 ( -26.28%)
   displ. norm   :     0.2956454 α      lambda       -0.1705229E-03
   maximum displ.:     0.1758863 α      in ANC's #2, #3, #1, ...

........................................................................
.............................. CYCLE   10 ..............................
........................................................................

 iter      E             dE          RMSdq      gap      omega  full diag
   1    -53.5260285 -0.535260E+02  0.142E-01    1.93       0.0  T
   2    -53.5260319 -0.343897E-05  0.832E-02    1.93       1.0  T
   3    -53.5260260  0.589660E-05  0.163E-02    1.93       1.2  T
   4    -53.5260335 -0.746378E-05  0.371E-03    1.93       5.2  T
   5    -53.5260335 -0.506520E-07  0.186E-03    1.93      10.3  T
   6    -53.5260336 -0.454821E-07  0.787E-04    1.93      24.4  T
   7    -53.5260336 -0.698655E-08  0.370E-04    1.93      52.0  T
     SCC iter.                  ...        0 min,  0.007 sec
     gradient                   ...        0 min,  0.005 sec
 * total energy  :   -52.8758758 Eh     change       -0.1239527E-03 Eh
   gradient norm :     0.0032840 Eh/α   predicted    -0.9271811E-04 ( -25.20%)
   displ. norm   :     0.2437462 α      lambda       -0.1107056E-03
   maximum displ.:     0.1387737 α      in ANC's #2, #1, #3, ...

........................................................................
.............................. CYCLE   11 ..............................
........................................................................

 iter      E             dE          RMSdq      gap      omega  full diag
   1    -53.5268646 -0.535269E+02  0.112E-01    1.93       0.0  T
   2    -53.5268672 -0.257842E-05  0.655E-02    1.93       1.0  T
   3    -53.5268600  0.721681E-05  0.172E-02    1.93       1.1  T
   4    -53.5268686 -0.861420E-05  0.283E-03    1.93       6.8  T
   5    -53.5268686 -0.405035E-07  0.162E-03    1.93      11.9  T
   6    -53.5268687 -0.314777E-07  0.747E-04    1.93      25.8  T
   7    -53.5268687 -0.492747E-08  0.349E-04    1.93      55.1  T
     SCC iter.                  ...        0 min,  0.007 sec
     gradient                   ...        0 min,  0.003 sec
 * total energy  :   -52.8759567 Eh     change       -0.8088362E-04 Eh
   gradient norm :     0.0025380 Eh/α   predicted    -0.5864394E-04 ( -27.50%)
   displ. norm   :     0.3045925 α      lambda       -0.9421487E-04
   maximum displ.:     0.1733171 α      in ANC's #1, #2, #3, ...

........................................................................
.............................. CYCLE   12 ..............................
........................................................................

 iter      E             dE          RMSdq      gap      omega  full diag
   1    -53.5251076 -0.535251E+02  0.139E-01    1.92       0.0  T
   2    -53.5251103 -0.271820E-05  0.815E-02    1.92       1.0  T
   3    -53.5251043  0.602762E-05  0.163E-02    1.92       1.2  T
   4    -53.5251118 -0.746904E-05  0.328E-03    1.92       5.9  T
   5    -53.5251118 -0.219823E-07  0.170E-03    1.92      11.3  T
   6    -53.5251118 -0.343362E-07  0.720E-04    1.92      26.7  T
   7    -53.5251118 -0.747226E-08  0.259E-04    1.92      74.2  T
     SCC iter.                  ...        0 min,  0.007 sec
     gradient                   ...        0 min,  0.003 sec
 * total energy  :   -52.8760134 Eh     change       -0.5677184E-04 Eh
   gradient norm :     0.0049801 Eh/α   predicted    -0.5147932E-04 (  -9.32%)
   displ. norm   :     0.2119459 α      lambda       -0.1312209E-03
   maximum displ.:     0.1570984 α      in ANC's #1, #2, #3, ...

........................................................................
.............................. CYCLE   13 ..............................
........................................................................

 iter      E             dE          RMSdq      gap      omega  full diag
   1    -53.5277478 -0.535277E+02  0.789E-02    1.92       0.0  T
   2    -53.5277494 -0.165707E-05  0.466E-02    1.92       1.0  T
   3    -53.5277431  0.630745E-05  0.153E-02    1.92       1.3  T
   4    -53.5277505 -0.740223E-05  0.205E-03    1.92       9.4  T
   5    -53.5277506 -0.479044E-07  0.126E-03    1.92      15.3  T
   6    -53.5277506 -0.141095E-07  0.678E-04    1.92      28.4  T
   7    -53.5277506 -0.262781E-08  0.339E-04    1.92      56.8  T
     SCC iter.                  ...        0 min,  0.007 sec
     gradient                   ...        0 min,  0.003 sec
 * total energy  :   -52.8760912 Eh     change       -0.7771486E-04 Eh
   gradient norm :     0.0053099 Eh/α   predicted    -0.6855790E-04 ( -11.78%)
   displ. norm   :     0.2919624 α      lambda       -0.9649312E-04
   maximum displ.:     0.2075272 α      in ANC's #1, #2, #3, ...

........................................................................
.............................. CYCLE   14 ..............................
........................................................................

 iter      E             dE          RMSdq      gap      omega  full diag
   1    -53.5267566 -0.535268E+02  0.118E-01    1.93       0.0  T
   2    -53.5267578 -0.122089E-05  0.693E-02    1.92       1.0  T
   3    -53.5267539  0.392082E-05  0.119E-02    1.93       1.6  T
   4    -53.5267586 -0.472590E-05  0.236E-03    1.92       8.2  T
   5    -53.5267586 -0.136836E-07  0.134E-03    1.92      14.3  T
   6    -53.5267586 -0.188736E-07  0.566E-04    1.92      34.0  T
   7    -53.5267586 -0.274957E-08  0.345E-04    1.92      55.8  T
     SCC iter.                  ...        0 min,  0.007 sec
     gradient                   ...        0 min,  0.003 sec
 * total energy  :   -52.8761675 Eh     change       -0.7636732E-04 Eh
   gradient norm :     0.0049214 Eh/α   predicted    -0.5237698E-04 ( -31.41%)
   displ. norm   :     0.2180160 α      lambda       -0.9294383E-04
   maximum displ.:     0.1751426 α      in ANC's #1, #2, #3, ...

........................................................................
.............................. CYCLE   15 ..............................
........................................................................

 iter      E             dE          RMSdq      gap      omega  full diag
   1    -53.5265395 -0.535265E+02  0.799E-02    1.93       0.0  T
   2    -53.5265403 -0.790789E-06  0.471E-02    1.93       1.0  T
   3    -53.5265394  0.852736E-06  0.626E-03    1.93       3.1  T
   4    -53.5265406 -0.115948E-05  0.165E-03    1.93      11.7  T
   5    -53.5265406 -0.146392E-07  0.921E-04    1.93      20.9  T
   6    -53.5265406 -0.895214E-08  0.372E-04    1.93      51.8  T
     SCC iter.                  ...        0 min,  0.006 sec
     gradient                   ...        0 min,  0.003 sec
 * total energy  :   -52.8762396 Eh     change       -0.7210530E-04 Eh
   gradient norm :     0.0029738 Eh/α   predicted    -0.4868134E-04 ( -32.49%)
   displ. norm   :     0.1820641 α      lambda       -0.7538295E-04
   maximum displ.:     0.1610543 α      in ANC's #1, #2, #6, ...

........................................................................
.............................. CYCLE   16 ..............................
........................................................................

 iter      E             dE          RMSdq      gap      omega  full diag
   1    -53.5270656 -0.535271E+02  0.637E-02    1.93       0.0  T
   2    -53.5270665 -0.881663E-06  0.374E-02    1.93       1.0  T
   3    -53.5270655  0.101897E-05  0.755E-03    1.93       2.5  T
   4    -53.5270668 -0.138611E-05  0.160E-03    1.93      12.1  T
   5    -53.5270668 -0.806453E-08  0.824E-04    1.93      23.4  T
   6    -53.5270669 -0.513675E-08  0.448E-04    1.93      43.0  T
     SCC iter.                  ...        0 min,  0.007 sec
     gradient                   ...        0 min,  0.003 sec
 * total energy  :   -52.8762962 Eh     change       -0.5652711E-04 Eh
   gradient norm :     0.0024483 Eh/α   predicted    -0.3894126E-04 ( -31.11%)
   displ. norm   :     0.1995063 α      lambda       -0.5907037E-04
   maximum displ.:     0.1745463 α      in ANC's #1, #2, #6, ...

........................................................................
.............................. CYCLE   17 ..............................
........................................................................

 iter      E             dE          RMSdq      gap      omega  full diag
   1    -53.5263963 -0.535264E+02  0.709E-02    1.93       0.0  T
   2    -53.5263969 -0.596756E-06  0.415E-02    1.93       1.0  T
   3    -53.5263969  0.677759E-07  0.373E-03    1.93       5.2  T
   4    -53.5263972 -0.299081E-06  0.149E-03    1.93      12.9  T
   5    -53.5263972 -0.853919E-08  0.600E-04    1.93      32.1  T
   6    -53.5263972 -0.319861E-08  0.351E-04    1.93      54.8  T
     SCC iter.                  ...        0 min,  0.007 sec
     gradient                   ...        0 min,  0.003 sec
 * total energy  :   -52.8763439 Eh     change       -0.4776215E-04 Eh
   gradient norm :     0.0026070 Eh/α   predicted    -0.3071213E-04 ( -35.70%)
   displ. norm   :     0.1572587 α      lambda       -0.4738798E-04
   maximum displ.:     0.1429851 α      in ANC's #1, #2, #8, ...

........................................................................
.............................. CYCLE   18 ..............................
........................................................................

 iter      E             dE          RMSdq      gap      omega  full diag
   1    -53.5269263 -0.535269E+02  0.551E-02    1.93       0.0  T
   2    -53.5269268 -0.457834E-06  0.322E-02    1.93       1.0  T
   3    -53.5269268  0.651655E-08  0.313E-03    1.93       6.2  T
   4    -53.5269270 -0.186084E-06  0.142E-03    1.93      13.6  T
   5    -53.5269270 -0.111498E-07  0.545E-04    1.93      35.3  T
   6    -53.5269270 -0.279101E-08  0.384E-04    1.93      50.1  T
     SCC iter.                  ...        0 min,  0.006 sec
     gradient                   ...        0 min,  0.003 sec
 * total energy  :   -52.8763833 Eh     change       -0.3941059E-04 Eh
   gradient norm :     0.0021095 Eh/α   predicted    -0.2428459E-04 ( -38.38%)
   displ. norm   :     0.1925131 α      lambda       -0.4845391E-04
   maximum displ.:     0.1675581 α      in ANC's #1, #2, #8, ...

........................................................................
.............................. CYCLE   19 ..............................
........................................................................

 iter      E             dE          RMSdq      gap      omega  full diag
   1    -53.5264790 -0.535265E+02  0.714E-02    1.92       0.0  T
   2    -53.5264795 -0.527760E-06  0.417E-02    1.92       1.0  T
   3    -53.5264796 -0.102088E-06  0.278E-03    1.92       6.9  T
   4    -53.5264797 -0.981612E-07  0.135E-03    1.92      14.3  T
   5    -53.5264797 -0.426155E-08  0.576E-04    1.92      33.4  T
   6    -53.5264797 -0.750988E-08  0.300E-04    1.92      64.1  T
     SCC iter.                  ...        0 min,  0.006 sec
     gradient                   ...        0 min,  0.003 sec
 * total energy  :   -52.8764215 Eh     change       -0.3815246E-04 Eh
   gradient norm :     0.0017518 Eh/α   predicted    -0.2512573E-04 ( -34.14%)
   displ. norm   :     0.4423605 α      lambda       -0.5500139E-04
   maximum displ.:     0.3887243 α      in ANC's #1, #2, #8, ...

........................................................................
.............................. CYCLE   20 ..............................
........................................................................

 iter      E             dE          RMSdq      gap      omega  full diag
   1    -53.5258469 -0.535258E+02  0.163E-01    1.92       0.0  T
   2    -53.5258498 -0.284534E-05  0.951E-02    1.92       1.0  T
   3    -53.5258499 -0.783005E-07  0.796E-03    1.92       2.4  T
   4    -53.5258509 -0.104517E-05  0.326E-03    1.92       5.9  T
   5    -53.5258510 -0.350244E-07  0.110E-03    1.92      17.6  T
   6    -53.5258510 -0.232064E-07  0.498E-04    1.92      38.6  T
   7    -53.5258510 -0.845979E-09  0.325E-04    1.92      59.1  T
     SCC iter.                  ...        0 min,  0.007 sec
     gradient                   ...        0 min,  0.003 sec
 * total energy  :   -52.8764613 Eh     change       -0.3985715E-04 Eh
   gradient norm :     0.0033643 Eh/α   predicted    -0.2989659E-04 ( -24.99%)
   displ. norm   :     0.0682622 α      lambda       -0.2493925E-04
   maximum displ.:     0.0555156 α      in ANC's #1, #2, #5, ...
 * RMSD in coord.:     0.7343850 α      energy gain  -0.8768122E-02 Eh

generating ANC from exact Hessian ...
Using Lindh-Hessian (1995)
 Shifting diagonal of input Hessian by    9.4176542632253436E-003
 Lowest  eigenvalues of input Hessian
    0.000000    0.000000    0.000000    0.000000    0.000000    0.000000
    0.010000    0.010744    0.011280    0.012761    0.014371    0.015237
    0.015997    0.019457    0.020789    0.022887    0.027921    0.031770
 Highest eigenvalues
    1.948150    2.028429    2.117822    2.146900    2.244474    2.425863


........................................................................
.............................. CYCLE   21 ..............................
........................................................................

 iter      E             dE          RMSdq      gap      omega  full diag
   1    -53.5266197 -0.535266E+02  0.282E-02    1.92       0.0  T
   2    -53.5266199 -0.149863E-06  0.167E-02    1.92       1.1  T
   3    -53.5266196  0.292138E-06  0.346E-03    1.92       5.6  T
   4    -53.5266199 -0.361995E-06  0.920E-04    1.92      20.9  T
   5    -53.5266199 -0.551741E-08  0.638E-04    1.92      30.2  T
     SCC iter.                  ...        0 min,  0.005 sec
     gradient                   ...        0 min,  0.003 sec
 * total energy  :   -52.8764794 Eh     change       -0.1805390E-04 Eh
   gradient norm :     0.0025804 Eh/α   predicted     0.0000000E+00 (-100.00%)
   displ. norm   :     0.0243455 α      lambda       -0.1944266E-04
   maximum displ.:     0.0108205 α      in ANC's #5, #7, #8, ...

........................................................................
.............................. CYCLE   22 ..............................
........................................................................

 iter      E             dE          RMSdq      gap      omega  full diag
   1    -53.5270425 -0.535270E+02  0.127E-02    1.92       0.0  T
   2    -53.5270425 -0.599798E-07  0.759E-03    1.92       2.5  T
   3    -53.5270424  0.705611E-07  0.188E-03    1.92      10.2  T
   4    -53.5270425 -0.925788E-07  0.544E-04    1.92      35.4  T
   5    -53.5270425 -0.205617E-08  0.382E-04    1.92      50.4  T
     SCC iter.                  ...        0 min,  0.005 sec
     gradient                   ...        0 min,  0.003 sec
 * total energy  :   -52.8764948 Eh     change       -0.1545605E-04 Eh
   gradient norm :     0.0012451 Eh/α   predicted    -0.9970850E-05 ( -35.49%)
   displ. norm   :     0.0871219 α      lambda       -0.2622825E-04
   maximum displ.:     0.0434252 α      in ANC's #5, #8, #1, ...

........................................................................
.............................. CYCLE   23 ..............................
........................................................................

 iter      E             dE          RMSdq      gap      omega  full diag
   1    -53.5275960 -0.535276E+02  0.400E-02    1.92       0.0  T
   2    -53.5275964 -0.408151E-06  0.238E-02    1.92       1.0  T
   3    -53.5275960  0.439328E-06  0.459E-03    1.92       4.2  T
   4    -53.5275966 -0.588282E-06  0.156E-03    1.92      12.3  T
   5    -53.5275966 -0.163543E-07  0.104E-03    1.92      18.5  T
   6    -53.5275966 -0.737882E-08  0.653E-04    1.92      29.5  T
   7    -53.5275966 -0.347634E-08  0.416E-04    1.92      46.3  T
     SCC iter.                  ...        0 min,  0.007 sec
     gradient                   ...        0 min,  0.003 sec
 * total energy  :   -52.8765125 Eh     change       -0.1760291E-04 Eh
   gradient norm :     0.0023378 Eh/α   predicted    -0.1315879E-04 ( -25.25%)
   displ. norm   :     0.0243264 α      lambda       -0.9349958E-05
   maximum displ.:     0.0134462 α      in ANC's #1, #5, #8, ...

........................................................................
.............................. CYCLE   24 ..............................
........................................................................

 iter      E             dE          RMSdq      gap      omega  full diag
   1    -53.5273735 -0.535274E+02  0.110E-02    1.92       0.0  T
   2    -53.5273735 -0.126929E-07  0.660E-03    1.92       2.9  T
   3    -53.5273735  0.102531E-07  0.835E-04    1.92      23.1  T
   4    -53.5273735 -0.169337E-07  0.366E-04    1.92      52.6  T
     SCC iter.                  ...        0 min,  0.004 sec
     gradient                   ...        0 min,  0.003 sec
 * total energy  :   -52.8765204 Eh     change       -0.7940494E-05 Eh
   gradient norm :     0.0016938 Eh/α   predicted    -0.4678826E-05 ( -41.08%)
   displ. norm   :     0.1235200 α      lambda       -0.2381811E-04
   maximum displ.:     0.0709986 α      in ANC's #1, #5, #8, ...

........................................................................
.............................. CYCLE   25 ..............................
........................................................................

 iter      E             dE          RMSdq      gap      omega  full diag
   1    -53.5264876 -0.535265E+02  0.553E-02    1.92       0.0  T
   2    -53.5264879 -0.277703E-06  0.332E-02    1.92       1.0  T
   3    -53.5264876  0.252157E-06  0.408E-03    1.92       4.7  T
   4    -53.5264880 -0.399829E-06  0.155E-03    1.92      12.4  T
   5    -53.5264880 -0.572081E-08  0.978E-04    1.92      19.7  T
   6    -53.5264880 -0.861517E-08  0.559E-04    1.92      34.4  T
     SCC iter.                  ...        0 min,  0.006 sec
     gradient                   ...        0 min,  0.003 sec
 * total energy  :   -52.8765371 Eh     change       -0.1671814E-04 Eh
   gradient norm :     0.0016537 Eh/α   predicted    -0.1198994E-04 ( -28.28%)
   displ. norm   :     0.0402070 α      lambda       -0.6340895E-05
   maximum displ.:     0.0281780 α      in ANC's #1, #4, #5, ...

........................................................................
.............................. CYCLE   26 ..............................
........................................................................

 iter      E             dE          RMSdq      gap      omega  full diag
   1    -53.5268338 -0.535268E+02  0.177E-02    1.92       0.0  T
   2    -53.5268339 -0.409725E-07  0.107E-02    1.92       1.8  T
   3    -53.5268338  0.804066E-07  0.200E-03    1.92       9.6  T
   4    -53.5268339 -0.104972E-06  0.580E-04    1.92      33.2  T
   5    -53.5268339 -0.101699E-08  0.382E-04    1.92      50.4  T
     SCC iter.                  ...        0 min,  0.005 sec
     gradient                   ...        0 min,  0.003 sec
 * total energy  :   -52.8765454 Eh     change       -0.8259437E-05 Eh
   gradient norm :     0.0010448 Eh/α   predicted    -0.3174273E-05 ( -61.57%)
   displ. norm   :     0.0990884 α      lambda       -0.1403058E-04
   maximum displ.:     0.0705246 α      in ANC's #1, #4, #6, ...

........................................................................
.............................. CYCLE   27 ..............................
........................................................................

 iter      E             dE          RMSdq      gap      omega  full diag
   1    -53.5274794 -0.535275E+02  0.420E-02    1.92       0.0  T
   2    -53.5274796 -0.254249E-06  0.254E-02    1.92       1.0  T
   3    -53.5274791  0.558511E-06  0.505E-03    1.92       3.8  T
   4    -53.5274798 -0.702621E-06  0.119E-03    1.92      16.2  T
   5    -53.5274798 -0.401741E-08  0.737E-04    1.92      26.1  T
   6    -53.5274798 -0.259491E-08  0.451E-04    1.92      42.7  T
     SCC iter.                  ...        0 min,  0.006 sec
     gradient                   ...        0 min,  0.003 sec
 * total energy  :   -52.8765597 Eh     change       -0.1433240E-04 Eh
   gradient norm :     0.0008611 Eh/α   predicted    -0.7046834E-05 ( -50.83%)
   displ. norm   :     0.1056163 α      lambda       -0.8976173E-05
   maximum displ.:     0.0762027 α      in ANC's #1, #4, #6, ...

........................................................................
.............................. CYCLE   28 ..............................
........................................................................

 iter      E             dE          RMSdq      gap      omega  full diag
   1    -53.5274495 -0.535274E+02  0.434E-02    1.92       0.0  T
   2    -53.5274497 -0.164599E-06  0.261E-02    1.92       1.0  T
   3    -53.5274495  0.201343E-06  0.338E-03    1.92       5.7  T
   4    -53.5274498 -0.298189E-06  0.107E-03    1.92      17.9  T
   5    -53.5274498 -0.301311E-08  0.590E-04    1.92      32.6  T
   6    -53.5274498 -0.194349E-08  0.341E-04    1.92      56.5  T
     SCC iter.                  ...        0 min,  0.006 sec
     gradient                   ...        0 min,  0.003 sec
 * total energy  :   -52.8765692 Eh     change       -0.9530697E-05 Eh
   gradient norm :     0.0013298 Eh/α   predicted    -0.4514688E-05 ( -52.63%)
   displ. norm   :     0.0701825 α      lambda       -0.6140328E-05
   maximum displ.:     0.0530080 α      in ANC's #1, #4, #2, ...

........................................................................
.............................. CYCLE   29 ..............................
........................................................................

 iter      E             dE          RMSdq      gap      omega  full diag
   1    -53.5273979 -0.535274E+02  0.268E-02    1.92       0.0  T
   2    -53.5273980 -0.557690E-07  0.161E-02    1.92       1.2  T
   3    -53.5273980  0.105372E-07  0.132E-03    1.92      14.6  T
   4    -53.5273980 -0.385671E-07  0.654E-04    1.92      29.4  T
   5    -53.5273980 -0.248749E-08  0.345E-04    1.92      55.8  T
     SCC iter.                  ...        0 min,  0.005 sec
     gradient                   ...        0 min,  0.003 sec
 * total energy  :   -52.8765773 Eh     change       -0.8073278E-05 Eh
   gradient norm :     0.0010020 Eh/α   predicted    -0.3078720E-05 ( -61.87%)
   displ. norm   :     0.0785672 α      lambda       -0.7357625E-05
   maximum displ.:     0.0617747 α      in ANC's #1, #4, #2, ...

........................................................................
.............................. CYCLE   30 ..............................
........................................................................

 iter      E             dE          RMSdq      gap      omega  full diag
   1    -53.5272736 -0.535273E+02  0.281E-02    1.92       0.0  T
   2    -53.5272737 -0.612845E-07  0.168E-02    1.92       1.1  T
   3    -53.5272737 -0.316339E-08  0.120E-03    1.92      16.0  T
   4    -53.5272737 -0.265320E-07  0.668E-04    1.92      28.8  T
   5    -53.5272737 -0.278391E-08  0.311E-04    1.92      61.8  T
     SCC iter.                  ...        0 min,  0.005 sec
     gradient                   ...        0 min,  0.003 sec
 * total energy  :   -52.8765863 Eh     change       -0.8970691E-05 Eh
   gradient norm :     0.0003398 Eh/α   predicted    -0.3693298E-05 ( -58.83%)
   displ. norm   :     0.0733832 α      lambda       -0.4833528E-05
   maximum displ.:     0.0591986 α      in ANC's #1, #4, #7, ...

........................................................................
.............................. CYCLE   31 ..............................
........................................................................

 iter      E             dE          RMSdq      gap      omega  full diag
   1    -53.5270568 -0.535271E+02  0.260E-02    1.92       0.0  T
   2    -53.5270568 -0.629761E-07  0.155E-02    1.92       1.2  T
   3    -53.5270568 -0.103928E-07  0.118E-03    1.92      16.4  T
   4    -53.5270569 -0.192261E-07  0.688E-04    1.92      28.0  T
   5    -53.5270569 -0.289681E-08  0.318E-04    1.92      60.5  T
     SCC iter.                  ...        0 min,  0.005 sec
     gradient                   ...        0 min,  0.003 sec
 * total energy  :   -52.8765921 Eh     change       -0.5858181E-05 Eh
   gradient norm :     0.0003870 Eh/α   predicted    -0.2425578E-05 ( -58.60%)
   displ. norm   :     0.0477210 α      lambda       -0.2775307E-05
   maximum displ.:     0.0402966 α      in ANC's #1, #7, #6, ...

........................................................................
.............................. CYCLE   32 ..............................
........................................................................

 iter      E             dE          RMSdq      gap      omega  full diag
   1    -53.5271203 -0.535271E+02  0.161E-02    1.92       0.0  T
   2    -53.5271203 -0.353318E-07  0.948E-03    1.92       2.0  T
   3    -53.5271203 -0.839503E-08  0.761E-04    1.92      25.3  T
   4    -53.5271203 -0.519876E-08  0.442E-04    1.92      43.5  T
     SCC iter.                  ...        0 min,  0.004 sec
     gradient                   ...        0 min,  0.003 sec
 * total energy  :   -52.8765958 Eh     change       -0.3644503E-05 Eh
   gradient norm :     0.0004393 Eh/α   predicted    -0.1389353E-05 ( -61.88%)
   displ. norm   :     0.0378012 α      lambda       -0.2235298E-05
   maximum displ.:     0.0323655 α      in ANC's #1, #6, #7, ...

   *** GEOMETRY OPTIMIZATION CONVERGED AFTER 32 ITERATIONS ***

------------------------------------------------------------------------
 total energy gain   :        -0.0089026 Eh       -5.5864 kcal/mol
 total RMSD          :         0.8105485 a0        0.4289 Å
 total power (kW/mol):        -0.7304274 (step)  -61.7102 (real)
------------------------------------------------------------------------

 ANCopt (total)                0 d,  0 h,  0 min,  0.379 sec
 optimizer setup                ...        0 min,  0.000 sec (  0.029%)
 model hessian                  ...        0 min,  0.007 sec (  1.946%)
 ANC generation                 ...        0 min,  0.001 sec (  0.243%)
 coordinate transformation      ...        0 min,  0.000 sec (  0.075%)
 single point calculation       ...        0 min,  0.360 sec ( 95.059%)
 optimization log               ...        0 min,  0.005 sec (  1.438%)
 hessian update                 ...        0 min,  0.001 sec (  0.151%)
 rational function              ...        0 min,  0.002 sec (  0.636%)

================
 final structure:
================
27
 xtb: 6.7.1 (edcfbbe)
N            1.15168415863751        0.34344555333161        0.55292899343400
C            1.05141112779672       -0.93622317876663        0.18416129797951
C           -0.19798692346002       -1.46942932309669       -0.15900675205887
C           -1.28612682253867       -0.60873558176224       -0.10205662154560
N           -1.16246113822054        0.66731744989049        0.25543963393919
C            0.05322843945094        1.06956465190264        0.56591176597360
C           -2.66906664156640       -1.06829172578100       -0.44040908429557
O           -3.63136703514379       -0.36040660246080       -0.53676289150552
O           -2.72576343249919       -2.39692373407114       -0.63413234122839
C            2.28275691367214       -1.72389433770096        0.18363117687230
C            2.39671189983463       -2.95894967513830       -0.45748247925324
C            3.58089551771784       -3.65144710989326       -0.40750856317586
C            4.70997223483857       -3.17415243125644        0.27784690674818
C            4.59103052488927       -1.92818823885100        0.90556454070170
C            3.39998301757669       -1.22670486527820        0.84841913860133
Cl           5.87576442318592       -1.15073955674083        1.78992021875493
O            5.75937757417989       -4.01718768186837        0.21625280615885
C            6.99600869804606       -3.76275592882719        0.84878123486027
H           -0.33124486288581       -2.50008375078896       -0.43770718553063
H            0.16017494009221        2.10457878985286        0.86470413763558
H           -3.63596977456640       -2.65811265983535       -0.84671852950658
H            1.57032204681486       -3.37398130089211       -1.01216307998351
H            3.68524180968044       -4.60507471214190       -0.90113452387133
H            3.32268601857459       -0.26630714167097        1.33330661459680
H            7.48286964492924       -2.87308312978684        0.44511623436631
H            6.88576228153236       -3.66584845808131        1.93037304377591
H            7.60639535943036       -4.63803532028733        0.62700430755731

 Bond Distances (Angstroems)
 ---------------------------
N1-C2=1.3355         N1-C6=1.3168         C2-N1=1.3355         C2-C3=1.4011         C2-C10=1.4617        C3-C2=1.4011         
C3-C4=1.3886         C3-H19=1.0760        C4-C3=1.3886         C4-N5=1.3309         C4-C7=1.4961         N5-C4=1.3309         
N5-C6=1.3176         C6-N1=1.3168         C6-N5=1.3176         C6-H20=1.0826        C7-C4=1.4961         C7-O8=1.1985         
C7-O9=1.3439         O8-C7=1.1985         O9-C7=1.3439         O9-H21=0.9705        C10-C2=1.4617        C10-C11=1.3962       
C10-C15=1.3919       C11-C10=1.3962       C11-C12=1.3727       C11-H22=1.0784       C12-C11=1.3727       C12-C13=1.4044       
C12-H23=1.0789       C13-C12=1.4044       C13-C14=1.4002       C13-O17=1.3475       C14-C13=1.4002       C14-C15=1.3835       
C14-Cl16=1.7427      C15-C10=1.3919       C15-C14=1.3835       C15-H24=1.0786       Cl16-C14=1.7427      O17-C13=1.3475       
O17-C18=1.4121       C18-O17=1.4121       C18-H25=1.0916       C18-H26=1.0915       C18-H27=1.0899       H19-C3=1.0760        
H20-C6=1.0826        H21-O9=0.9705        H22-C11=1.0784       H23-C12=1.0789       H24-C15=1.0786       H25-C18=1.0916       
H26-C18=1.0915       H27-C18=1.0899       
 C  H  Rav=1.0834 sigma=0.0061  Rmin=1.0760  Rmax=1.0916     8
 C  C  Rav=1.4096 sigma=0.0366  Rmin=1.3727  Rmax=1.4961    10
 N  C  Rav=1.3252 sigma=0.0082  Rmin=1.3168  Rmax=1.3355     4
 O  H  Rav=0.9705 sigma=0.0000  Rmin=0.9705  Rmax=0.9705     1
 O  C  Rav=1.3255 sigma=0.0782  Rmin=1.1985  Rmax=1.4121     4
 Cl C  Rav=1.7427 sigma=0.0000  Rmin=1.7427  Rmax=1.7427     1

 selected bond angles (degree)
 --------------------
C6-N1-C2=117.93                C3-C2-N1=119.95                C10-C2-N1=116.95               C10-C2-C3=123.09               
C4-C3-C2=116.93                H19-C3-C2=122.58               H19-C3-C4=120.49               N5-C4-C3=122.17                
C7-C4-C3=121.65                C7-C4-N5=116.18                C6-N5-C4=116.21                N5-C6-N1=126.80                
H20-C6-N1=116.58               H20-C6-N5=116.62               O8-C7-C4=125.38                O9-C7-C4=112.04                
O9-C7-O8=122.58                H21-O9-C7=109.71               C11-C10-C2=123.07              C15-C10-C2=118.91              
C15-C10-C11=118.02             

 selected dihedral angles (degree)
 ---------------------------------
C3-C2-N1-C6=359.30            C10-C2-N1-C6=180.28           C4-C3-C2-N1=  0.43            C4-C3-C2-C10=179.38           
H19-C3-C2-N1=181.60           H19-C3-C2-C10=  0.55          N5-C4-C3-C2=  0.24            N5-C4-C3-H19=179.10           
C7-C4-C3-C2=180.28            C7-C4-C3-H19=359.13           C6-N5-C4-C3=359.41            C6-N5-C4-C7=179.37            
N5-C6-N1-C2=  0.34            H20-C6-N1-C2=180.22           N1-C6-N5-C4=  0.31            H20-C6-N5-C4=180.44           
O8-C7-C4-C3=187.45            O8-C7-C4-N5=  7.49            O9-C7-C4-C3=  7.34            O9-C7-C4-N5=187.37            
H21-O9-C7-C4=179.73           H21-O9-C7-O8=359.62           C11-C10-C2-N1=195.17          C11-C10-C2-C3= 16.19          
C15-C10-C2-N1= 15.05          C15-C10-C2-C3=196.07          
           -------------------------------------------------
          |                Final Singlepoint                |
           -------------------------------------------------

          ...................................................
          :                      SETUP                      :
          :.................................................:
          :  # basis functions                  87          :
          :  # atomic orbitals                  86          :
          :  # shells                           46          :
          :  # electrons                        92          :
          :  max. iterations                   250          :
          :  Hamiltonian                  GFN2-xTB          :
          :  restarted?                      false          :
          :  GBSA solvation                  false          :
          :  PC potential                    false          :
          :  electronic temp.          300.0000000     K    :
          :  accuracy                    1.0000000          :
          :  -> integral cutoff          0.2500000E+02      :
          :  -> integral neglect         0.1000000E-07      :
          :  -> SCF convergence          0.1000000E-05 Eh   :
          :  -> wf. convergence          0.1000000E-03 e    :
          :  Broyden damping             0.4000000          :
          :  net charge                          0          :
          :  unpaired electrons                  0          :
          ...................................................

 iter      E             dE          RMSdq      gap      omega  full diag
   1    -53.5271203 -0.535271E+02  0.170E-04    1.92       0.0  T
   2    -53.5271203 -0.160846E-09  0.130E-04    1.92     147.8  T
   3    -53.5271203 -0.194646E-09  0.958E-05    1.92     200.9  T

   *** convergence criteria satisfied after 3 iterations ***

         #    Occupation            Energy/Eh            Energy/eV
      -------------------------------------------------------------
         1        2.0000           -1.0660005             -29.0074
       ...           ...                  ...                  ...
        40        2.0000           -0.4469233             -12.1614
        41        2.0000           -0.4363070             -11.8725
        42        2.0000           -0.4246997             -11.5567
        43        2.0000           -0.4182770             -11.3819
        44        2.0000           -0.4110731             -11.1859
        45        2.0000           -0.3951775             -10.7533
        46        2.0000           -0.3778598             -10.2821 (HOMO)
        47                         -0.3074334              -8.3657 (LUMO)
        48                         -0.2818280              -7.6689
        49                         -0.2503697              -6.8129
        50                         -0.2350776              -6.3968
        51                         -0.2052120              -5.5841
       ...                                ...                  ...
        86                          0.6897930              18.7702
      -------------------------------------------------------------
                  HL-Gap            0.0704264 Eh            1.9164 eV
             Fermi-level           -0.3426466 Eh           -9.3239 eV

 SCC (total)                   0 d,  0 h,  0 min,  0.009 sec
 SCC setup                      ...        0 min,  0.000 sec (  1.546%)
 Dispersion                     ...        0 min,  0.000 sec (  1.218%)
 classical contributions        ...        0 min,  0.000 sec (  0.187%)
 integral evaluation            ...        0 min,  0.001 sec ( 13.823%)
 iterations                     ...        0 min,  0.004 sec ( 46.332%)
 molecular gradient             ...        0 min,  0.003 sec ( 35.770%)
 printout                       ...        0 min,  0.000 sec (  0.944%)

         :::::::::::::::::::::::::::::::::::::::::::::::::::::
         ::                     SUMMARY                     ::
         :::::::::::::::::::::::::::::::::::::::::::::::::::::
         :: total energy             -52.876595780338 Eh    ::
         :: gradient norm              0.000439393913 Eh/a0 ::
         :: HOMO-LUMO gap              1.916399441594 eV    ::
         ::.................................................::
         :: SCC energy               -53.527310771841 Eh    ::
         :: -> isotropic ES            0.076430192779 Eh    ::
         :: -> anisotropic ES          0.004345197978 Eh    ::
         :: -> anisotropic XC          0.021837889666 Eh    ::
         :: -> dispersion             -0.029034725590 Eh    ::
         :: repulsion energy           0.650714991503 Eh    ::
         :: add. restraining           0.000000000000 Eh    ::
         :: total charge               0.000000000000 e     ::
         :::::::::::::::::::::::::::::::::::::::::::::::::::::

           -------------------------------------------------
          |                Property Printout                |
           -------------------------------------------------

    * Orbital Energies and Occupations

         #    Occupation            Energy/Eh            Energy/eV
      -------------------------------------------------------------
         1        2.0000           -1.0660005             -29.0074
       ...           ...                  ...                  ...
        34        2.0000           -0.4842873             -13.1781
        35        2.0000           -0.4821127             -13.1190
        36        2.0000           -0.4721793             -12.8487
        37        2.0000           -0.4705712             -12.8049
        38        2.0000           -0.4617617             -12.5652
        39        2.0000           -0.4520912             -12.3020
        40        2.0000           -0.4469233             -12.1614
        41        2.0000           -0.4363070             -11.8725
        42        2.0000           -0.4246997             -11.5567
        43        2.0000           -0.4182770             -11.3819
        44        2.0000           -0.4110731             -11.1859
        45        2.0000           -0.3951775             -10.7533
        46        2.0000           -0.3778598             -10.2821 (HOMO)
        47                         -0.3074334              -8.3657 (LUMO)
        48                         -0.2818280              -7.6689
        49                         -0.2503697              -6.8129
        50                         -0.2350776              -6.3968
        51                         -0.2052120              -5.5841
        52                         -0.1555490              -4.2327
        53                         -0.1358634              -3.6970
        54                         -0.0971529              -2.6437
        55                         -0.0000142              -0.0004
        56                          0.0048721               0.1326
        57                          0.0086502               0.2354
       ...                                ...                  ...
        86                          0.6897930              18.7702
      -------------------------------------------------------------
                  HL-Gap            0.0704264 Eh            1.9164 eV
             Fermi-level           -0.3426466 Eh           -9.3239 eV

     #   Z          covCN         q      C6AA      α(0)
     1   7 N        1.842    -0.235    27.009     7.702
     2   6 C        2.974     0.116    25.436     8.273
     3   6 C        2.910    -0.049    29.216     8.863
     4   6 C        2.983     0.086    26.087     8.378
     5   7 N        1.839    -0.219    26.620     7.646
     6   6 C        2.910     0.153    24.686     8.147
     7   6 C        2.696     0.353    21.006     7.501
     8   8 O        0.856    -0.369    21.063     6.153
     9   8 O        1.659    -0.380    20.465     6.107
    10   6 C        2.978    -0.003    28.100     8.695
    11   6 C        2.919    -0.033    28.829     8.805
    12   6 C        2.926    -0.055    29.354     8.885
    13   6 C        2.864     0.147    24.802     8.163
    14   6 C        2.881     0.064    26.557     8.448
    15   6 C        2.985    -0.036    28.893     8.817
    16  17 Cl       0.965    -0.177   104.712    15.655
    17   8 O        1.707    -0.239    17.967     5.723
    18   6 C        3.635     0.029    20.470     6.510
    19   1 H        0.926     0.064     2.154     2.295
    20   1 H        0.925     0.058     2.221     2.331
    21   1 H        0.804     0.334     0.627     1.243
    22   1 H        0.926     0.055     2.255     2.348
    23   1 H        0.926     0.069     2.101     2.266
    24   1 H        0.926     0.087     1.904     2.158
    25   1 H        0.924     0.057     2.234     2.338
    26   1 H        0.924     0.056     2.241     2.341
    27   1 H        0.925     0.067     2.118     2.276

 Mol. C6AA /au·bohr⁶  :      11552.859165
 Mol. C8AA /au·bohr⁸  :     298743.255799
 Mol. α(0) /au        :        168.070127


Wiberg/Mayer (AO) data.
largest (>0.10) Wiberg bond orders for each atom

 ---------------------------------------------------------------------------
     #   Z sym  total        # sym  WBO       # sym  WBO       # sym  WBO
 ---------------------------------------------------------------------------
     1   7 N    3.063 --     6 C    1.441     2 C    1.372
     2   6 C    3.973 --     1 N    1.372     3 C    1.351    10 C    1.074
     3   6 C    3.985 --     4 C    1.421     2 C    1.351    19 H    0.960
                             6 C    0.104
     4   6 C    3.978 --     3 C    1.421     5 N    1.382     7 C    0.970
     5   7 N    3.056 --     6 C    1.432     4 C    1.382
     6   6 C    3.963 --     1 N    1.441     5 N    1.432    20 H    0.954
                             3 C    0.104
     7   6 C    3.919 --     8 O    1.783     9 O    1.119     4 C    0.970
     8   8 O    2.074 --     7 C    1.783     9 O    0.179
     9   8 O    2.193 --     7 C    1.119    21 H    0.864     8 O    0.179
    10   6 C    3.985 --    15 C    1.374    11 C    1.347     2 C    1.074
    11   6 C    3.990 --    12 C    1.499    10 C    1.347    22 H    0.964
    12   6 C    3.982 --    11 C    1.499    13 C    1.315    23 H    0.964
    13   6 C    3.936 --    14 C    1.326    12 C    1.315    17 O    1.107
    14   6 C    3.912 --    15 C    1.430    13 C    1.326    16 Cl   0.961
    15   6 C    3.984 --    14 C    1.430    10 C    1.374    24 H    0.959
    16  17 Cl   1.099 --    14 C    0.961
    17   8 O    2.270 --    13 C    1.107    18 C    0.970
    18   6 C    3.933 --    27 H    0.979    26 H    0.977    25 H    0.976
                            17 O    0.970
    19   1 H    0.996 --     3 C    0.960
    20   1 H    0.996 --     6 C    0.954
    21   1 H    0.888 --     9 O    0.864
    22   1 H    0.996 --    11 C    0.964
    23   1 H    0.995 --    12 C    0.964
    24   1 H    0.992 --    15 C    0.959
    25   1 H    0.995 --    18 C    0.976
    26   1 H    0.995 --    18 C    0.977
    27   1 H    0.995 --    18 C    0.979
 ---------------------------------------------------------------------------

Topologies differ in total number of bonds
Writing topology from bond orders to xtbtopo.mol

molecular dipole:
                 x           y           z       tot (Debye)
 q only:        1.016      -1.520      -0.228
   full:        1.054      -1.719      -0.175       5.146
molecular quadrupole (traceless):
                xx          xy          yy          xz          yz          zz
 q only:       -0.621      -4.579       8.140      -0.807       1.909      -7.519
  q+dip:        1.238       0.826       6.505       2.425       3.337      -7.743
   full:       -0.270       1.870       4.447       1.607       1.216      -4.177

           -------------------------------------------------
          |                Geometry Summary                 |
           -------------------------------------------------

      molecular mass/u    :      264.6648563
   center of mass at/Å    :        1.9826220      -1.5687123       0.3344753
  moments of inertia/u·Å² :        0.4835080E+03   0.3191988E+04   0.3644483E+04
rotational constants/cm⁻¹ :        0.3486526E-01   0.5281233E-02   0.4625520E-02

 * 26 selected distances

     #   Z          #   Z                                           value/Å
     1   7 N        2   6 C                                       1.3355136
     2   6 C        3   6 C                                       1.4010956
     3   6 C        4   6 C                                       1.3885553
     4   6 C        5   7 N                                       1.3309427
     1   7 N        6   6 C                                       1.3168230
     5   7 N        6   6 C                                       1.3176104
     7   6 C        8   8 O                                       1.1985023
     7   6 C        9   8 O                                       1.3438774
    10   6 C       11   6 C                                       1.3962000
    11   6 C       12   6 C                                       1.3727131
    12   6 C       13   6 C                                       1.4043991
    13   6 C       14   6 C                                       1.4002156
    10   6 C       15   6 C                                       1.3918818
    14   6 C       15   6 C                                       1.3834519
    14   6 C       16  17 Cl                                      1.7427143 (max)
    13   6 C       17   8 O                                       1.3474992
    17   8 O       18   6 C                                       1.4121206
     3   6 C       19   1 H                                       1.0759556
     6   6 C       20   1 H                                       1.0825751
     9   8 O       21   1 H                                       0.9705093 (min)
    11   6 C       22   1 H                                       1.0783516
    12   6 C       23   1 H                                       1.0788700
    15   6 C       24   1 H                                       1.0786356
    18   6 C       25   1 H                                       1.0915571
    18   6 C       26   1 H                                       1.0915065
    18   6 C       27   1 H                                       1.0898950

 * 6 distinct bonds (by element types)

   Z      Z             #   av. dist./Å        max./Å        min./Å
   1 H    6 C           8     1.0834183     1.0915571     1.0759556
   6 C    6 C           8     1.3923141     1.4043991     1.3727131
   6 C    7 N           4     1.3252224     1.3355136     1.3168230
   1 H    8 O           1     0.9705093     0.9705093     0.9705093
   6 C    8 O           4     1.3254999     1.4121206     1.1985023
   6 C   17 Cl          1     1.7427143     1.7427143     1.7427143


optimized geometry written to: xtbopt.xyz


           -------------------------------------------------
          | TOTAL ENERGY              -52.876595780338 Eh   |
          | GRADIENT NORM               0.000439393913 Eh/α |
          | HOMO-LUMO GAP               1.916399441594 eV   |
           -------------------------------------------------

------------------------------------------------------------------------
 * finished run on 2024/12/17 at 14:08:06.227     
------------------------------------------------------------------------
 total:
 * wall-time:     0 d,  0 h,  0 min,  0.430 sec
 *  cpu-time:     0 d,  0 h,  0 min,  3.405 sec
 * ratio c/w:     7.916 speedup
 SCF:
 * wall-time:     0 d,  0 h,  0 min,  0.024 sec
 *  cpu-time:     0 d,  0 h,  0 min,  0.187 sec
 * ratio c/w:     7.939 speedup
 ANC optimizer:
 * wall-time:     0 d,  0 h,  0 min,  0.389 sec
 *  cpu-time:     0 d,  0 h,  0 min,  3.089 sec
 * ratio c/w:     7.946 speedup

