      -----------------------------------------------------------      
     |                   =====================                   |     
     |                           x T B                           |     
     |                   =====================                   |     
     |                         S. Grimme                         |     
     |          Mulliken Center for Theoretical Chemistry        |     
     |                    University of Bonn                     |     
      -----------------------------------------------------------      

   * xtb version 6.7.1 (edcfbbe) compiled by 'conda@3ef47c1a292c' on 2024-11-25

   xtb is free software: you can redistribute it and/or modify it under
   the terms of the GNU Lesser General Public License as published by
   the Free Software Foundation, either version 3 of the License, or
   (at your option) any later version.
   
   xtb is distributed in the hope that it will be useful,
   but WITHOUT ANY WARRANTY; without even the implied warranty of
   MERCHANTABILITY or FITNESS FOR A PARTICULAR PURPOSE.  See the
   GNU Lesser General Public License for more details.
   
   Cite this work as:
   * C. Bannwarth, E. Caldeweyher, S. Ehlert, A. Hansen, P. Pracht,
     J. Seibert, S. Spicher, S. Grimme, WIREs Comput. Mol. Sci., 2020, 11,
     e01493. DOI: 10.1002/wcms.1493
   
   for GFN2-xTB:
   * C. Bannwarth, S. Ehlert and S. Grimme., J. Chem. Theory Comput., 2019,
     15, 1652-1671. DOI: 10.1021/acs.jctc.8b01176
   for GFN1-xTB:
   * S. Grimme, C. Bannwarth, P. Shushkov, J. Chem. Theory Comput., 2017,
     13, 1989-2009. DOI: 10.1021/acs.jctc.7b00118
   for GFN0-xTB:
   * P. Pracht, E. Caldeweyher, S. Ehlert, S. Grimme, ChemRxiv, 2019, preprint.
     DOI: 10.26434/chemrxiv.8326202.v1
   for GFN-FF:
   * S. Spicher and S. Grimme, Angew. Chem. Int. Ed., 2020, 59, 15665-15673.
     DOI: 10.1002/anie.202004239
   
   for ALPB and GBSA implicit solvation:
   * S. Ehlert, M. Stahn, S. Spicher, S. Grimme, J. Chem. Theory Comput.,
     2021, 17, 4250-4261. DOI: 10.1021/acs.jctc.1c00471
   
   for ddCOSMO and CPCM-X implicit solvation:
   * M. Stahn, S. Ehlert, S. Grimme, J. Phys. Chem. A,
     2023, XX, XXXX-XXXX. DOI: 10.1021/acs.jpca.3c04382
   
   for DFT-D4:
   * E. Caldeweyher, C. Bannwarth and S. Grimme, J. Chem. Phys., 2017,
     147, 034112. DOI: 10.1063/1.4993215
   * E. Caldeweyher, S. Ehlert, A. Hansen, H. Neugebauer, S. Spicher,
     C. Bannwarth and S. Grimme, J. Chem. Phys., 2019, 150, 154122.
     DOI: 10.1063/1.5090222
   * E. Caldeweyher, J.-M. Mewes, S. Ehlert and S. Grimme, Phys. Chem. Chem. Phys.
     2020, 22, 8499-8512. DOI: 10.1039/D0CP00502A
   
   for sTDA-xTB:
   * S. Grimme and C. Bannwarth, J. Chem. Phys., 2016, 145, 054103.
     DOI: 10.1063/1.4959605
   
   in the mass-spec context:
   * V. Asgeirsson, C. Bauer and S. Grimme, Chem. Sci., 2017, 8, 4879.
     DOI: 10.1039/c7sc00601b
   * J. Koopman and S. Grimme, ACS Omega 2019, 4, 12, 15120-15133.
     DOI: 10.1021/acsomega.9b02011
   
   for metadynamics refer to:
   * S. Grimme, J. Chem. Theory Comput., 2019, 155, 2847-2862
     DOI: 10.1021/acs.jctc.9b00143
   
   for SPH calculations refer to:
   * S. Spicher and S. Grimme, J. Chem. Theory Comput., 2021, 17, 1701-1714
     DOI: 10.1021/acs.jctc.0c01306
   
   for ONIOM refer to:
   * C. Plett, A. Katbashev, S. Ehlert, S. Grimme, M. Bursch,
     Phys. Chem. Chem. Phys., 2023, 25, 17860-17868. DOI: 10.1039/D3CP02178E
   
   for DIPRO refer to:
   * J. Kohn, N. Gildemeister, S. Grimme, D. Fazzi, A. Hansen,
     J. Chem. Phys., 2023, just accepted.
   
   for PTB refer to:
   * S. Grimme, M. Mueller, A. Hansen, J. Chem. Phys., 2023, 158, 124111.
     DOI: 10.1063/5.0137838
   
   with help from (in alphabetical order)
   P. Atkinson, C. Bannwarth, F. Bohle, G. Brandenburg, E. Caldeweyher
   M. Checinski, S. Dohm, S. Ehlert, S. Ehrlich, I. Gerasimov, C. Hölzer
   A. Katbashev, J. Kohn, J. Koopman, C. Lavigne, S. Lehtola, F. März, M. Müller,
   F. Musil, H. Neugebauer, J. Pisarek, C. Plett, P. Pracht, F. Pultar,
   J. Seibert, P. Shushkov, S. Spicher, M. Stahn, M. Steiner, T. Strunk,
   J. Stückrath, T. Rose, and J. Unsleber
   
 * started run on 2024/12/17 at 14:08:30.137     
   ID    Z sym.   atoms
    1    7 N      1, 5
    2    6 C      2-4, 6, 7, 10-15, 17, 18
    3    8 O      8, 9, 16
    4    1 H      19-26

           -------------------------------------------------
          |                Calculation Setup                |
           -------------------------------------------------

          program call               : xtb K014.xyz --opt --namespace K014
          calculation namespace      : K014
          coordinate file            : K014.xyz
          omp threads                :                     8


           -------------------------------------------------
          |                 G F N 2 - x T B                 |
           -------------------------------------------------

        Reference                      10.1021/acs.jctc.8b01176
      * Hamiltonian:
        H0-scaling (s, p, d)           1.850000    2.230000    2.230000
        zeta-weighting                 0.500000
      * Dispersion:
        s8                             2.700000
        a1                             0.520000
        a2                             5.000000
        s9                             5.000000
      * Repulsion:
        kExp                           1.500000    1.000000
        rExp                           1.000000
      * Coulomb:
        alpha                          2.000000
        third order                    shell-resolved
        anisotropic                    true
        a3                             3.000000
        a5                             4.000000
        cn-shift                       1.200000
        cn-exp                         4.000000
        max-rad                        5.000000


          ...................................................
          :                      SETUP                      :
          :.................................................:
          :  # basis functions                  80          :
          :  # atomic orbitals                  80          :
          :  # shells                           44          :
          :  # electrons                        88          :
          :  max. iterations                   250          :
          :  Hamiltonian                  GFN2-xTB          :
          :  restarted?                      false          :
          :  GBSA solvation                  false          :
          :  PC potential                    false          :
          :  electronic temp.          300.0000000     K    :
          :  accuracy                    1.0000000          :
          :  -> integral cutoff          0.2500000E+02      :
          :  -> integral neglect         0.1000000E-07      :
          :  -> SCF convergence          0.1000000E-05 Eh   :
          :  -> wf. convergence          0.1000000E-03 e    :
          :  Broyden damping             0.4000000          :
          :  net charge                          0          :
          :  unpaired electrons                  0          :
          ...................................................

 iter      E             dE          RMSdq      gap      omega  full diag
   1    -50.5581451 -0.505581E+02  0.492E+00    2.28       0.0  T
   2    -50.6025609 -0.444159E-01  0.303E+00    2.24       1.0  T
   3    -50.5928391  0.972185E-02  0.152E+00    2.00       1.0  T
   4    -50.6122315 -0.193925E-01  0.474E-01    1.88       1.0  T
   5    -50.6174235 -0.519194E-02  0.121E-01    1.87       1.0  T
   6    -50.6175507 -0.127172E-03  0.515E-02    1.86       1.0  T
   7    -50.6175724 -0.217698E-04  0.228E-02    1.87       1.0  T
   8    -50.6175760 -0.355580E-05  0.767E-03    1.87       2.6  T
   9    -50.6175763 -0.276747E-06  0.349E-03    1.87       5.6  T
  10    -50.6175764 -0.130651E-06  0.142E-03    1.87      13.8  T
  11    -50.6175764 -0.122708E-07  0.550E-04    1.87      35.6  T
  12    -50.6175764 -0.211126E-08  0.242E-04    1.87      81.1  T

   *** convergence criteria satisfied after 12 iterations ***

         #    Occupation            Energy/Eh            Energy/eV
      -------------------------------------------------------------
         1        2.0000           -0.7577735             -20.6201
       ...           ...                  ...                  ...
        38        2.0000           -0.4477722             -12.1845
        39        2.0000           -0.4403820             -11.9834
        40        2.0000           -0.4377732             -11.9124
        41        2.0000           -0.4179627             -11.3733
        42        2.0000           -0.4119815             -11.2106
        43        2.0000           -0.3966810             -10.7942
        44        2.0000           -0.3815295             -10.3819 (HOMO)
        45                         -0.3128035              -8.5118 (LUMO)
        46                         -0.2777729              -7.5586
        47                         -0.2629896              -7.1563
        48                         -0.2359778              -6.4213
        49                         -0.2135945              -5.8122
       ...                                ...                  ...
        80                          0.6961199              18.9424
      -------------------------------------------------------------
                  HL-Gap            0.0687260 Eh            1.8701 eV
             Fermi-level           -0.3471665 Eh           -9.4469 eV

 SCC (total)                   0 d,  0 h,  0 min,  0.018 sec
 SCC setup                      ...        0 min,  0.000 sec (  0.826%)
 Dispersion                     ...        0 min,  0.000 sec (  1.484%)
 classical contributions        ...        0 min,  0.000 sec (  0.211%)
 integral evaluation            ...        0 min,  0.001 sec (  7.260%)
 iterations                     ...        0 min,  0.013 sec ( 73.760%)
 molecular gradient             ...        0 min,  0.003 sec ( 15.556%)
 printout                       ...        0 min,  0.000 sec (  0.814%)

         :::::::::::::::::::::::::::::::::::::::::::::::::::::
         ::                     SUMMARY                     ::
         :::::::::::::::::::::::::::::::::::::::::::::::::::::
         :: total energy             -49.953565060355 Eh    ::
         :: gradient norm              0.091109652322 Eh/a0 ::
         :: HOMO-LUMO gap              1.870128374965 eV    ::
         ::.................................................::
         :: SCC energy               -50.617711733718 Eh    ::
         :: -> isotropic ES            0.070271239986 Eh    ::
         :: -> anisotropic ES          0.005748593902 Eh    ::
         :: -> anisotropic XC          0.025189988454 Eh    ::
         :: -> dispersion             -0.027615097326 Eh    ::
         :: repulsion energy           0.664146673364 Eh    ::
         :: add. restraining           0.000000000000 Eh    ::
         :: total charge               0.000000000000 e     ::
         :::::::::::::::::::::::::::::::::::::::::::::::::::::

      ----------------------------------------------------------- 
     |                   =====================                   |
     |                        A N C O P T                        |
     |                   =====================                   |
     |               Approximate Normal Coordinate               |
     |                Rational Function Optimizer                |
      ----------------------------------------------------------- 
      ----------------------------------------------------------- 
     |                   =====================                   |
     |                        A N C O P T                        |
     |                   =====================                   |
     |               Approximate Normal Coordinate               |
     |                Rational Function Optimizer                |
      ----------------------------------------------------------- 

          ...................................................
          :                      SETUP                      :
          :.................................................:
          :   optimization level            normal          :
          :   max. optcycles                   200          :
          :   ANC micro-cycles                  20          :
          :   degrees of freedom                72          :
          :.................................................:
          :   RF solver                   davidson          :
          :   write xtbopt.log                true          :
          :   linear?                        false          :
          :   energy convergence         0.5000000E-05 Eh   :
          :   grad. convergence          0.1000000E-02 Eh/α :
          :   maxmium RF displ.          1.0000000          :
          :   Hlow (freq-cutoff)         0.1000000E-01      :
          :   Hmax (freq-cutoff)         5.0000000          :
          :   S6 in model hess.         20.0000000          :
          ...................................................

generating ANC from exact Hessian ...
Using Lindh-Hessian (1995)
 Shifting diagonal of input Hessian by    9.3418970436868164E-003
 Lowest  eigenvalues of input Hessian
    0.000000    0.000000    0.000000    0.000000    0.000000    0.000000
    0.010000    0.010848    0.011351    0.014907    0.016159    0.018679
    0.019937    0.022608    0.027388    0.030825    0.033318    0.035944
 Highest eigenvalues
    1.984773    2.011090    2.071216    2.110846    2.134570    2.331501


........................................................................
.............................. CYCLE    1 ..............................
........................................................................

 iter      E             dE          RMSdq      gap      omega  full diag
   1    -50.6175764 -0.506176E+02  0.108E-04    1.87       0.0  T
   2    -50.6175764 -0.417160E-10  0.693E-05    1.87     283.2  T
   3    -50.6175764 -0.223679E-10  0.478E-05    1.87     410.7  T
     SCC iter.                  ...        0 min,  0.003 sec
     gradient                   ...        0 min,  0.003 sec
 * total energy  :   -49.9535651 Eh     change       -0.5201670E-09 Eh
   gradient norm :     0.0911097 Eh/α   predicted     0.0000000E+00 (-100.00%)
   displ. norm   :     0.1931667 α      lambda       -0.9209651E-02
   maximum displ.:     0.1040130 α      in ANC's #12, #33, #32, ...

........................................................................
.............................. CYCLE    2 ..............................
........................................................................

 iter      E             dE          RMSdq      gap      omega  full diag
   1    -50.6527023 -0.506527E+02  0.172E-01    1.92       0.0  T
   2    -50.6527796 -0.772420E-04  0.115E-01    1.92       1.0  T
   3    -50.6527704  0.918109E-05  0.578E-02    1.92       1.0  T
   4    -50.6528109 -0.405212E-04  0.133E-02    1.92       1.5  T
   5    -50.6528136 -0.266319E-05  0.444E-03    1.92       4.4  T
   6    -50.6528138 -0.224829E-06  0.223E-03    1.92       8.8  T
   7    -50.6528138 -0.315643E-07  0.105E-03    1.92      18.6  T
   8    -50.6528139 -0.141374E-07  0.300E-04    1.92      65.3  T
   9    -50.6528139 -0.223089E-09  0.167E-04    1.92     117.3  T
     SCC iter.                  ...        0 min,  0.008 sec
     gradient                   ...        0 min,  0.003 sec
 * total energy  :   -49.9597846 Eh     change       -0.6219537E-02 Eh
   gradient norm :     0.0319749 Eh/α   predicted    -0.4777243E-02 ( -23.19%)
   displ. norm   :     0.1660382 α      lambda       -0.2196136E-02
   maximum displ.:     0.0726004 α      in ANC's #12, #27, #2, ...

........................................................................
.............................. CYCLE    3 ..............................
........................................................................

 iter      E             dE          RMSdq      gap      omega  full diag
   1    -50.6674246 -0.506674E+02  0.120E-01    1.94       0.0  T
   2    -50.6674478 -0.232291E-04  0.759E-02    1.94       1.0  T
   3    -50.6674345  0.133257E-04  0.396E-02    1.94       1.0  T
   4    -50.6674595 -0.250354E-04  0.673E-03    1.94       2.9  T
   5    -50.6674601 -0.604483E-06  0.282E-03    1.94       7.0  T
   6    -50.6674602 -0.777380E-07  0.141E-03    1.94      13.9  T
   7    -50.6674602 -0.114171E-07  0.615E-04    1.94      31.9  T
   8    -50.6674602 -0.498883E-08  0.206E-04    1.94      95.2  T
     SCC iter.                  ...        0 min,  0.007 sec
     gradient                   ...        0 min,  0.003 sec
 * total energy  :   -49.9610383 Eh     change       -0.1253676E-02 Eh
   gradient norm :     0.0089732 Eh/α   predicted    -0.1128440E-02 (  -9.99%)
   displ. norm   :     0.1151287 α      lambda       -0.2973145E-03
   maximum displ.:     0.0563876 α      in ANC's #1, #2, #3, ...

........................................................................
.............................. CYCLE    4 ..............................
........................................................................

 iter      E             dE          RMSdq      gap      omega  full diag
   1    -50.6673212 -0.506673E+02  0.609E-02    1.94       0.0  T
   2    -50.6673232 -0.203182E-05  0.354E-02    1.94       1.0  T
   3    -50.6673204  0.284292E-05  0.127E-02    1.94       1.5  T
   4    -50.6673239 -0.357701E-05  0.225E-03    1.94       8.7  T
   5    -50.6673240 -0.456662E-07  0.119E-03    1.94      16.4  T
   6    -50.6673240 -0.137934E-07  0.538E-04    1.94      36.5  T
   7    -50.6673240 -0.132744E-08  0.215E-04    1.94      91.0  T
     SCC iter.                  ...        0 min,  0.006 sec
     gradient                   ...        0 min,  0.003 sec
 * total energy  :   -49.9612694 Eh     change       -0.2310882E-03 Eh
   gradient norm :     0.0065679 Eh/α   predicted    -0.1506318E-03 ( -34.82%)
   displ. norm   :     0.2311606 α      lambda       -0.3428714E-03
   maximum displ.:     0.1246215 α      in ANC's #2, #1, #3, ...

........................................................................
.............................. CYCLE    5 ..............................
........................................................................

 iter      E             dE          RMSdq      gap      omega  full diag
   1    -50.6652706 -0.506653E+02  0.113E-01    1.95       0.0  T
   2    -50.6652756 -0.493771E-05  0.654E-02    1.94       1.0  T
   3    -50.6652704  0.514526E-05  0.167E-02    1.94       1.2  T
   4    -50.6652772 -0.673643E-05  0.341E-03    1.94       5.7  T
   5    -50.6652773 -0.851391E-07  0.187E-03    1.94      10.5  T
   6    -50.6652773 -0.390764E-07  0.768E-04    1.94      25.6  T
   7    -50.6652773 -0.362141E-08  0.324E-04    1.94      60.6  T
     SCC iter.                  ...        0 min,  0.014 sec
     gradient                   ...        0 min,  0.003 sec
 * total energy  :   -49.9614953 Eh     change       -0.2258947E-03 Eh
   gradient norm :     0.0045983 Eh/α   predicted    -0.1805984E-03 ( -20.05%)
   displ. norm   :     0.1862017 α      lambda       -0.1471128E-03
   maximum displ.:     0.1061279 α      in ANC's #1, #2, #3, ...

........................................................................
.............................. CYCLE    6 ..............................
........................................................................

 iter      E             dE          RMSdq      gap      omega  full diag
   1    -50.6646065 -0.506646E+02  0.872E-02    1.95       0.0  T
   2    -50.6646083 -0.184239E-05  0.507E-02    1.94       1.0  T
   3    -50.6646062  0.207774E-05  0.102E-02    1.94       1.9  T
   4    -50.6646090 -0.276742E-05  0.228E-03    1.94       8.6  T
   5    -50.6646090 -0.265618E-07  0.116E-03    1.94      17.0  T
   6    -50.6646090 -0.153051E-07  0.433E-04    1.94      45.3  T
   7    -50.6646090 -0.167241E-08  0.190E-04    1.94     103.4  T
     SCC iter.                  ...        0 min,  0.006 sec
     gradient                   ...        0 min,  0.003 sec
 * total energy  :   -49.9616151 Eh     change       -0.1198201E-03 Eh
   gradient norm :     0.0050924 Eh/α   predicted    -0.7612275E-04 ( -36.47%)
   displ. norm   :     0.2533845 α      lambda       -0.1986591E-03
   maximum displ.:     0.1474183 α      in ANC's #1, #2, #3, ...

........................................................................
.............................. CYCLE    7 ..............................
........................................................................

 iter      E             dE          RMSdq      gap      omega  full diag
   1    -50.6645826 -0.506646E+02  0.118E-01    1.95       0.0  T
   2    -50.6645850 -0.243615E-05  0.689E-02    1.95       1.0  T
   3    -50.6645804  0.456484E-05  0.144E-02    1.95       1.4  T
   4    -50.6645861 -0.570945E-05  0.288E-03    1.95       6.8  T
   5    -50.6645862 -0.389168E-07  0.147E-03    1.95      13.3  T
   6    -50.6645862 -0.229603E-07  0.535E-04    1.95      36.7  T
   7    -50.6645862 -0.349497E-08  0.205E-04    1.95      95.9  T
     SCC iter.                  ...        0 min,  0.006 sec
     gradient                   ...        0 min,  0.003 sec
 * total energy  :   -49.9617848 Eh     change       -0.1697395E-03 Eh
   gradient norm :     0.0058133 Eh/α   predicted    -0.1057083E-03 ( -37.72%)
   displ. norm   :     0.3642960 α      lambda       -0.2738221E-03
   maximum displ.:     0.2196788 α      in ANC's #1, #2, #3, ...

........................................................................
.............................. CYCLE    8 ..............................
........................................................................

 iter      E             dE          RMSdq      gap      omega  full diag
   1    -50.6645965 -0.506646E+02  0.170E-01    1.95       0.0  T
   2    -50.6646007 -0.423813E-05  0.988E-02    1.94       1.0  T
   3    -50.6645897  0.110125E-04  0.221E-02    1.94       1.0  T
   4    -50.6646031 -0.133642E-04  0.385E-03    1.94       5.1  T
   5    -50.6646031 -0.546932E-07  0.188E-03    1.94      10.4  T
   6    -50.6646031 -0.301689E-07  0.729E-04    1.94      26.9  T
   7    -50.6646031 -0.858265E-08  0.259E-04    1.94      75.7  T
     SCC iter.                  ...        0 min,  0.006 sec
     gradient                   ...        0 min,  0.003 sec
 * total energy  :   -49.9620095 Eh     change       -0.2246437E-03 Eh
   gradient norm :     0.0066425 Eh/α   predicted    -0.1550831E-03 ( -30.96%)
   displ. norm   :     0.4283133 α      lambda       -0.2725205E-03
   maximum displ.:     0.2679150 α      in ANC's #1, #2, #3, ...

........................................................................
.............................. CYCLE    9 ..............................
........................................................................

 iter      E             dE          RMSdq      gap      omega  full diag
   1    -50.6641019 -0.506641E+02  0.198E-01    1.94       0.0  T
   2    -50.6641070 -0.501963E-05  0.115E-01    1.94       1.0  T
   3    -50.6640939  0.130402E-04  0.242E-02    1.94       1.0  T
   4    -50.6641098 -0.159254E-04  0.430E-03    1.94       4.6  T
   5    -50.6641099 -0.597646E-07  0.209E-03    1.94       9.4  T
   6    -50.6641099 -0.359550E-07  0.771E-04    1.94      25.4  T
   7    -50.6641099 -0.940718E-08  0.306E-04    1.94      64.1  T
     SCC iter.                  ...        0 min,  0.006 sec
     gradient                   ...        0 min,  0.003 sec
 * total energy  :   -49.9622200 Eh     change       -0.2105287E-03 Eh
   gradient norm :     0.0066329 Eh/α   predicted    -0.1612593E-03 ( -23.40%)
   displ. norm   :     0.3378363 α      lambda       -0.2004019E-03
   maximum displ.:     0.2305764 α      in ANC's #1, #2, #3, ...

........................................................................
.............................. CYCLE   10 ..............................
........................................................................

 iter      E             dE          RMSdq      gap      omega  full diag
   1    -50.6652896 -0.506653E+02  0.153E-01    1.94       0.0  T
   2    -50.6652921 -0.244898E-05  0.894E-02    1.94       1.0  T
   3    -50.6652892  0.284553E-05  0.126E-02    1.94       1.6  T
   4    -50.6652933 -0.404179E-05  0.316E-03    1.94       6.2  T
   5    -50.6652933 -0.224949E-07  0.152E-03    1.94      12.9  T
   6    -50.6652933 -0.297350E-07  0.482E-04    1.94      40.7  T
   7    -50.6652933 -0.205061E-08  0.244E-04    1.94      80.2  T
     SCC iter.                  ...        0 min,  0.007 sec
     gradient                   ...        0 min,  0.003 sec
 * total energy  :   -49.9623735 Eh     change       -0.1534681E-03 Eh
   gradient norm :     0.0047065 Eh/α   predicted    -0.1116386E-03 ( -27.26%)
   displ. norm   :     0.2839845 α      lambda       -0.1353134E-03
   maximum displ.:     0.2064729 α      in ANC's #1, #3, #2, ...

........................................................................
.............................. CYCLE   11 ..............................
........................................................................

 iter      E             dE          RMSdq      gap      omega  full diag
   1    -50.6662279 -0.506662E+02  0.125E-01    1.94       0.0  T
   2    -50.6662297 -0.172860E-05  0.731E-02    1.94       1.0  T
   3    -50.6662270  0.266887E-05  0.116E-02    1.94       1.7  T
   4    -50.6662306 -0.356879E-05  0.248E-03    1.94       7.9  T
   5    -50.6662306 -0.102919E-07  0.119E-03    1.94      16.5  T
   6    -50.6662306 -0.150384E-07  0.440E-04    1.94      44.5  T
   7    -50.6662306 -0.182880E-08  0.170E-04    1.94     115.5  T
     SCC iter.                  ...        0 min,  0.006 sec
     gradient                   ...        0 min,  0.003 sec
 * total energy  :   -49.9624792 Eh     change       -0.1057377E-03 Eh
   gradient norm :     0.0029739 Eh/α   predicted    -0.7311510E-04 ( -30.85%)
   displ. norm   :     0.2223789 α      lambda       -0.8916160E-04
   maximum displ.:     0.1739403 α      in ANC's #1, #3, #2, ...

........................................................................
.............................. CYCLE   12 ..............................
........................................................................

 iter      E             dE          RMSdq      gap      omega  full diag
   1    -50.6669507 -0.506670E+02  0.934E-02    1.94       0.0  T
   2    -50.6669518 -0.104776E-05  0.546E-02    1.94       1.0  T
   3    -50.6669491  0.266309E-05  0.108E-02    1.94       1.8  T
   4    -50.6669524 -0.327072E-05  0.186E-03    1.94      10.5  T
   5    -50.6669524 -0.884479E-08  0.110E-03    1.94      17.9  T
   6    -50.6669524 -0.984124E-08  0.424E-04    1.94      46.2  T
   7    -50.6669524 -0.150597E-08  0.141E-04    1.94     138.8  T
     SCC iter.                  ...        0 min,  0.006 sec
     gradient                   ...        0 min,  0.003 sec
 * total energy  :   -49.9625515 Eh     change       -0.7226274E-04 Eh
   gradient norm :     0.0025770 Eh/α   predicted    -0.4678839E-04 ( -35.25%)
   displ. norm   :     0.1646911 α      lambda       -0.5959583E-04
   maximum displ.:     0.1359681 α      in ANC's #1, #3, #5, ...

........................................................................
.............................. CYCLE   13 ..............................
........................................................................

 iter      E             dE          RMSdq      gap      omega  full diag
   1    -50.6671691 -0.506672E+02  0.642E-02    1.94       0.0  T
   2    -50.6671696 -0.493630E-06  0.376E-02    1.94       1.0  T
   3    -50.6671682  0.142064E-05  0.747E-03    1.94       2.6  T
   4    -50.6671699 -0.171685E-05  0.125E-03    1.94      15.7  T
   5    -50.6671699 -0.479283E-08  0.741E-04    1.94      26.4  T
   6    -50.6671699 -0.395713E-08  0.305E-04    1.94      64.4  T
     SCC iter.                  ...        0 min,  0.005 sec
     gradient                   ...        0 min,  0.003 sec
 * total energy  :   -49.9626028 Eh     change       -0.5130474E-04 Eh
   gradient norm :     0.0023717 Eh/α   predicted    -0.3060711E-04 ( -40.34%)
   displ. norm   :     0.1153551 α      lambda       -0.4387599E-04
   maximum displ.:     0.1026073 α      in ANC's #1, #3, #5, ...

........................................................................
.............................. CYCLE   14 ..............................
........................................................................

 iter      E             dE          RMSdq      gap      omega  full diag
   1    -50.6675067 -0.506675E+02  0.394E-02    1.94       0.0  T
   2    -50.6675069 -0.197604E-06  0.232E-02    1.94       1.0  T
   3    -50.6675061  0.749433E-06  0.536E-03    1.94       3.7  T
   4    -50.6675070 -0.886584E-06  0.839E-04    1.94      23.4  T
   5    -50.6675070 -0.367969E-08  0.504E-04    1.94      38.9  T
     SCC iter.                  ...        0 min,  0.004 sec
     gradient                   ...        0 min,  0.003 sec
 * total energy  :   -49.9626415 Eh     change       -0.3874845E-04 Eh
   gradient norm :     0.0021397 Eh/α   predicted    -0.2223147E-04 ( -42.63%)
   displ. norm   :     0.0880541 α      lambda       -0.3425445E-04
   maximum displ.:     0.0811481 α      in ANC's #1, #3, #5, ...

........................................................................
.............................. CYCLE   15 ..............................
........................................................................

 iter      E             dE          RMSdq      gap      omega  full diag
   1    -50.6672161 -0.506672E+02  0.278E-02    1.94       0.0  T
   2    -50.6672163 -0.140873E-06  0.163E-02    1.94       1.2  T
   3    -50.6672160  0.241239E-06  0.317E-03    1.94       6.2  T
   4    -50.6672164 -0.302884E-06  0.686E-04    1.94      28.6  T
   5    -50.6672164 -0.352029E-08  0.367E-04    1.94      53.4  T
     SCC iter.                  ...        0 min,  0.004 sec
     gradient                   ...        0 min,  0.003 sec
 * total energy  :   -49.9626723 Eh     change       -0.3076213E-04 Eh
   gradient norm :     0.0013964 Eh/α   predicted    -0.1726240E-04 ( -43.88%)
   displ. norm   :     0.1085579 α      lambda       -0.2820354E-04
   maximum displ.:     0.0972876 α      in ANC's #1, #2, #4, ...

........................................................................
.............................. CYCLE   16 ..............................
........................................................................

 iter      E             dE          RMSdq      gap      omega  full diag
   1    -50.6676819 -0.506677E+02  0.352E-02    1.94       0.0  T
   2    -50.6676822 -0.279442E-06  0.205E-02    1.94       1.0  T
   3    -50.6676820  0.155442E-06  0.325E-03    1.94       6.0  T
   4    -50.6676823 -0.257871E-06  0.981E-04    1.94      20.0  T
   5    -50.6676823 -0.299772E-08  0.482E-04    1.94      40.7  T
     SCC iter.                  ...        0 min,  0.004 sec
     gradient                   ...        0 min,  0.003 sec
 * total energy  :   -49.9627086 Eh     change       -0.3636595E-04 Eh
   gradient norm :     0.0017286 Eh/α   predicted    -0.1417826E-04 ( -61.01%)
   displ. norm   :     0.0923719 α      lambda       -0.2410142E-04
   maximum displ.:     0.0831697 α      in ANC's #1, #2, #3, ...

........................................................................
.............................. CYCLE   17 ..............................
........................................................................

 iter      E             dE          RMSdq      gap      omega  full diag
   1    -50.6668294 -0.506668E+02  0.323E-02    1.94       0.0  T
   2    -50.6668297 -0.251294E-06  0.188E-02    1.94       1.0  T
   3    -50.6668289  0.744095E-06  0.596E-03    1.94       3.3  T
   4    -50.6668298 -0.900750E-06  0.912E-04    1.94      21.5  T
   5    -50.6668298 -0.235851E-08  0.478E-04    1.94      41.1  T
     SCC iter.                  ...        0 min,  0.005 sec
     gradient                   ...        0 min,  0.003 sec
 * total energy  :   -49.9627395 Eh     change       -0.3086427E-04 Eh
   gradient norm :     0.0015198 Eh/α   predicted    -0.1210097E-04 ( -60.79%)
   displ. norm   :     0.1027626 α      lambda       -0.2335609E-04
   maximum displ.:     0.0808793 α      in ANC's #1, #2, #3, ...

........................................................................
.............................. CYCLE   18 ..............................
........................................................................

 iter      E             dE          RMSdq      gap      omega  full diag
   1    -50.6670251 -0.506670E+02  0.423E-02    1.94       0.0  T
   2    -50.6670253 -0.284045E-06  0.246E-02    1.94       1.0  T
   3    -50.6670254 -0.526019E-07  0.199E-03    1.94       9.9  T
   4    -50.6670254 -0.465418E-07  0.106E-03    1.94      18.6  T
   5    -50.6670254 -0.768375E-08  0.356E-04    1.94      55.1  T
   6    -50.6670254 -0.176190E-08  0.148E-04    1.94     132.7  T
     SCC iter.                  ...        0 min,  0.005 sec
     gradient                   ...        0 min,  0.003 sec
 * total energy  :   -49.9627695 Eh     change       -0.2998936E-04 Eh
   gradient norm :     0.0014882 Eh/α   predicted    -0.1174037E-04 ( -60.85%)
   displ. norm   :     0.1194588 α      lambda       -0.2317457E-04
   maximum displ.:     0.0928711 α      in ANC's #1, #2, #3, ...

........................................................................
.............................. CYCLE   19 ..............................
........................................................................

 iter      E             dE          RMSdq      gap      omega  full diag
   1    -50.6672345 -0.506672E+02  0.494E-02    1.94       0.0  T
   2    -50.6672350 -0.490645E-06  0.287E-02    1.94       1.0  T
   3    -50.6672350  0.574472E-07  0.341E-03    1.94       5.7  T
   4    -50.6672352 -0.223041E-06  0.139E-03    1.94      14.1  T
   5    -50.6672352 -0.129547E-07  0.611E-04    1.94      32.1  T
   6    -50.6672352 -0.423115E-08  0.229E-04    1.94      85.7  T
     SCC iter.                  ...        0 min,  0.005 sec
     gradient                   ...        0 min,  0.003 sec
 * total energy  :   -49.9627952 Eh     change       -0.2566813E-04 Eh
   gradient norm :     0.0013606 Eh/α   predicted    -0.1166384E-04 ( -54.56%)
   displ. norm   :     0.0904911 α      lambda       -0.1726319E-04
   maximum displ.:     0.0785693 α      in ANC's #1, #3, #2, ...

........................................................................
.............................. CYCLE   20 ..............................
........................................................................

 iter      E             dE          RMSdq      gap      omega  full diag
   1    -50.6665952 -0.506666E+02  0.359E-02    1.94       0.0  T
   2    -50.6665955 -0.311774E-06  0.209E-02    1.94       1.0  T
   3    -50.6665951  0.468852E-06  0.528E-03    1.94       3.7  T
   4    -50.6665957 -0.608785E-06  0.971E-04    1.94      20.2  T
   5    -50.6665957 -0.251105E-08  0.516E-04    1.94      38.0  T
     SCC iter.                  ...        0 min,  0.006 sec
     gradient                   ...        0 min,  0.005 sec
 * total energy  :   -49.9628126 Eh     change       -0.1741658E-04 Eh
   gradient norm :     0.0010876 Eh/α   predicted    -0.8663599E-05 ( -50.26%)
   displ. norm   :     0.0563867 α      lambda       -0.8502227E-05
   maximum displ.:     0.0521362 α      in ANC's #1, #3, #4, ...
 * RMSD in coord.:     0.5952094 α      energy gain  -0.9247517E-02 Eh

generating ANC from exact Hessian ...
Using Lindh-Hessian (1995)
 Shifting diagonal of input Hessian by    9.3378852610455764E-003
 Lowest  eigenvalues of input Hessian
    0.000000    0.000000    0.000000    0.000000    0.000000    0.000000
    0.010000    0.011102    0.011523    0.014767    0.015837    0.019216
    0.020598    0.023341    0.028521    0.031850    0.035242    0.037045
 Highest eigenvalues
    1.995371    2.024508    2.133920    2.174130    2.242359    2.427218


........................................................................
.............................. CYCLE   21 ..............................
........................................................................

 iter      E             dE          RMSdq      gap      omega  full diag
   1    -50.6668181 -0.506668E+02  0.206E-02    1.94       0.0  T
   2    -50.6668182 -0.698439E-07  0.120E-02    1.94       1.6  T
   3    -50.6668181  0.859972E-07  0.195E-03    1.94      10.1  T
   4    -50.6668182 -0.113816E-06  0.482E-04    1.94      40.7  T
   5    -50.6668182 -0.203058E-08  0.262E-04    1.94      74.9  T
     SCC iter.                  ...        0 min,  0.005 sec
     gradient                   ...        0 min,  0.003 sec
 * total energy  :   -49.9628224 Eh     change       -0.9794092E-05 Eh
   gradient norm :     0.0011507 Eh/α   predicted     0.0000000E+00 (-100.00%)
   displ. norm   :     0.0333054 α      lambda       -0.6290833E-05
   maximum displ.:     0.0296625 α      in ANC's #1, #2, #6, ...

........................................................................
.............................. CYCLE   22 ..............................
........................................................................

 iter      E             dE          RMSdq      gap      omega  full diag
   1    -50.6671356 -0.506671E+02  0.137E-02    1.94       0.0  T
   2    -50.6671357 -0.349094E-07  0.815E-03    1.94       2.4  T
   3    -50.6671355  0.133580E-06  0.243E-03    1.94       8.1  T
   4    -50.6671357 -0.152217E-06  0.333E-04    1.94      58.9  T
   5    -50.6671357 -0.155388E-08  0.168E-04    1.94     116.9  T
     SCC iter.                  ...        0 min,  0.005 sec
     gradient                   ...        0 min,  0.003 sec
 * total energy  :   -49.9628303 Eh     change       -0.7902535E-05 Eh
   gradient norm :     0.0005346 Eh/α   predicted    -0.3502226E-05 ( -55.68%)
   displ. norm   :     0.0463503 α      lambda       -0.6925220E-05
   maximum displ.:     0.0384411 α      in ANC's #1, #2, #5, ...

........................................................................
.............................. CYCLE   23 ..............................
........................................................................

 iter      E             dE          RMSdq      gap      omega  full diag
   1    -50.6673209 -0.506673E+02  0.188E-02    1.94       0.0  T
   2    -50.6673209 -0.392868E-07  0.111E-02    1.94       1.8  T
   3    -50.6673208  0.162162E-06  0.271E-03    1.94       7.2  T
   4    -50.6673209 -0.189068E-06  0.387E-04    1.94      50.7  T
   5    -50.6673209 -0.946301E-09  0.227E-04    1.94      86.2  T
     SCC iter.                  ...        0 min,  0.004 sec
     gradient                   ...        0 min,  0.003 sec
 * total energy  :   -49.9628390 Eh     change       -0.8751354E-05 Eh
   gradient norm :     0.0009437 Eh/α   predicted    -0.3466322E-05 ( -60.39%)
   displ. norm   :     0.0574908 α      lambda       -0.7475867E-05
   maximum displ.:     0.0458526 α      in ANC's #1, #2, #5, ...

........................................................................
.............................. CYCLE   24 ..............................
........................................................................

 iter      E             dE          RMSdq      gap      omega  full diag
   1    -50.6671762 -0.506672E+02  0.235E-02    1.94       0.0  T
   2    -50.6671763 -0.393111E-07  0.138E-02    1.94       1.4  T
   3    -50.6671762  0.662992E-07  0.176E-03    1.94      11.1  T
   4    -50.6671763 -0.877031E-07  0.385E-04    1.94      50.9  T
   5    -50.6671763 -0.248711E-09  0.209E-04    1.94      93.8  T
     SCC iter.                  ...        0 min,  0.004 sec
     gradient                   ...        0 min,  0.003 sec
 * total energy  :   -49.9628492 Eh     change       -0.1022274E-04 Eh
   gradient norm :     0.0008514 Eh/α   predicted    -0.3743743E-05 ( -63.38%)
   displ. norm   :     0.0727066 α      lambda       -0.8549379E-05
   maximum displ.:     0.0567801 α      in ANC's #1, #2, #5, ...

........................................................................
.............................. CYCLE   25 ..............................
........................................................................

 iter      E             dE          RMSdq      gap      omega  full diag
   1    -50.6669984 -0.506670E+02  0.311E-02    1.94       0.0  T
   2    -50.6669984 -0.666293E-07  0.182E-02    1.94       1.1  T
   3    -50.6669983  0.100716E-06  0.223E-03    1.94       8.8  T
   4    -50.6669985 -0.134361E-06  0.514E-04    1.94      38.1  T
   5    -50.6669985 -0.821927E-09  0.279E-04    1.94      70.3  T
     SCC iter.                  ...        0 min,  0.005 sec
     gradient                   ...        0 min,  0.003 sec
 * total energy  :   -49.9628608 Eh     change       -0.1158110E-04 Eh
   gradient norm :     0.0005407 Eh/α   predicted    -0.4288824E-05 ( -62.97%)
   displ. norm   :     0.0815382 α      lambda       -0.8538630E-05
   maximum displ.:     0.0638651 α      in ANC's #1, #2, #3, ...

........................................................................
.............................. CYCLE   26 ..............................
........................................................................

 iter      E             dE          RMSdq      gap      omega  full diag
   1    -50.6669437 -0.506669E+02  0.342E-02    1.94       0.0  T
   2    -50.6669438 -0.996086E-07  0.200E-02    1.94       1.0  T
   3    -50.6669435  0.245070E-06  0.342E-03    1.94       5.7  T
   4    -50.6669438 -0.301110E-06  0.592E-04    1.94      33.1  T
   5    -50.6669438 -0.118693E-08  0.333E-04    1.94      58.9  T
     SCC iter.                  ...        0 min,  0.004 sec
     gradient                   ...        0 min,  0.003 sec
 * total energy  :   -49.9628723 Eh     change       -0.1143260E-04 Eh
   gradient norm :     0.0004240 Eh/α   predicted    -0.4282199E-05 ( -62.54%)
   displ. norm   :     0.0756171 α      lambda       -0.7142276E-05
   maximum displ.:     0.0604500 α      in ANC's #1, #2, #3, ...

........................................................................
.............................. CYCLE   27 ..............................
........................................................................

 iter      E             dE          RMSdq      gap      omega  full diag
   1    -50.6669104 -0.506669E+02  0.322E-02    1.94       0.0  T
   2    -50.6669105 -0.907386E-07  0.188E-02    1.94       1.0  T
   3    -50.6669103  0.162497E-06  0.287E-03    1.94       6.8  T
   4    -50.6669105 -0.208123E-06  0.577E-04    1.94      34.0  T
   5    -50.6669105 -0.931266E-09  0.316E-04    1.94      62.1  T
     SCC iter.                  ...        0 min,  0.004 sec
     gradient                   ...        0 min,  0.003 sec
 * total energy  :   -49.9628820 Eh     change       -0.9759354E-05 Eh
   gradient norm :     0.0004730 Eh/α   predicted    -0.3582701E-05 ( -63.29%)
   displ. norm   :     0.0611957 α      lambda       -0.5585210E-05
   maximum displ.:     0.0506095 α      in ANC's #1, #2, #3, ...

........................................................................
.............................. CYCLE   28 ..............................
........................................................................

 iter      E             dE          RMSdq      gap      omega  full diag
   1    -50.6669637 -0.506670E+02  0.246E-02    1.93       0.0  T
   2    -50.6669637 -0.592684E-07  0.144E-02    1.93       1.4  T
   3    -50.6669637  0.818223E-07  0.209E-03    1.93       9.4  T
   4    -50.6669638 -0.110626E-06  0.476E-04    1.93      41.2  T
   5    -50.6669638 -0.474742E-09  0.250E-04    1.93      78.5  T
     SCC iter.                  ...        0 min,  0.004 sec
     gradient                   ...        0 min,  0.003 sec
 * total energy  :   -49.9628899 Eh     change       -0.7862944E-05 Eh
   gradient norm :     0.0004046 Eh/α   predicted    -0.2800522E-05 ( -64.38%)
   displ. norm   :     0.0517492 α      lambda       -0.4794929E-05
   maximum displ.:     0.0437802 α      in ANC's #1, #3, #2, ...

........................................................................
.............................. CYCLE   29 ..............................
........................................................................

 iter      E             dE          RMSdq      gap      omega  full diag
   1    -50.6670344 -0.506670E+02  0.199E-02    1.93       0.0  T
   2    -50.6670344 -0.395883E-07  0.116E-02    1.93       1.7  T
   3    -50.6670344  0.348413E-07  0.139E-03    1.93      14.1  T
   4    -50.6670345 -0.527588E-07  0.408E-04    1.93      48.1  T
   5    -50.6670345 -0.533987E-09  0.169E-04    1.93     116.0  T
     SCC iter.                  ...        0 min,  0.005 sec
     gradient                   ...        0 min,  0.003 sec
 * total energy  :   -49.9628967 Eh     change       -0.6799447E-05 Eh
   gradient norm :     0.0003177 Eh/α   predicted    -0.2402302E-05 ( -64.67%)
   displ. norm   :     0.0484141 α      lambda       -0.4485593E-05
   maximum displ.:     0.0411345 α      in ANC's #1, #3, #2, ...

........................................................................
.............................. CYCLE   30 ..............................
........................................................................

 iter      E             dE          RMSdq      gap      omega  full diag
   1    -50.6670597 -0.506671E+02  0.172E-02    1.93       0.0  T
   2    -50.6670597 -0.337069E-07  0.100E-02    1.93       2.0  T
   3    -50.6670597  0.245305E-07  0.118E-03    1.93      16.6  T
   4    -50.6670598 -0.402878E-07  0.375E-04    1.93      52.3  T
   5    -50.6670598 -0.455756E-09  0.148E-04    1.93     132.2  T
     SCC iter.                  ...        0 min,  0.004 sec
     gradient                   ...        0 min,  0.003 sec
 * total energy  :   -49.9629030 Eh     change       -0.6276292E-05 Eh
   gradient norm :     0.0002546 Eh/α   predicted    -0.2246613E-05 ( -64.20%)
   displ. norm   :     0.0466187 α      lambda       -0.4160596E-05
   maximum displ.:     0.0396911 α      in ANC's #1, #3, #5, ...

........................................................................
.............................. CYCLE   31 ..............................
........................................................................

 iter      E             dE          RMSdq      gap      omega  full diag
   1    -50.6670658 -0.506671E+02  0.155E-02    1.93       0.0  T
   2    -50.6670659 -0.246672E-07  0.906E-03    1.93       2.2  T
   3    -50.6670658  0.202543E-07  0.105E-03    1.93      18.8  T
   4    -50.6670659 -0.324899E-07  0.343E-04    1.93      57.2  T
   5    -50.6670659 -0.413920E-09  0.133E-04    1.93     147.3  T
     SCC iter.                  ...        0 min,  0.004 sec
     gradient                   ...        0 min,  0.003 sec
 * total energy  :   -49.9629088 Eh     change       -0.5792852E-05 Eh
   gradient norm :     0.0002391 Eh/α   predicted    -0.2084504E-05 ( -64.02%)
   displ. norm   :     0.0428377 α      lambda       -0.3543886E-05
   maximum displ.:     0.0369718 α      in ANC's #1, #3, #5, ...

........................................................................
.............................. CYCLE   32 ..............................
........................................................................

 iter      E             dE          RMSdq      gap      omega  full diag
   1    -50.6670774 -0.506671E+02  0.133E-02    1.93       0.0  T
   2    -50.6670774 -0.176280E-07  0.777E-03    1.93       2.5  T
   3    -50.6670774  0.153264E-07  0.909E-04    1.93      21.6  T
   4    -50.6670775 -0.250287E-07  0.294E-04    1.93      66.8  T
     SCC iter.                  ...        0 min,  0.004 sec
     gradient                   ...        0 min,  0.003 sec
 * total energy  :   -49.9629137 Eh     change       -0.4988420E-05 Eh
   gradient norm :     0.0001964 Eh/α   predicted    -0.1774434E-05 ( -64.43%)
   displ. norm   :     0.0370989 α      lambda       -0.2917011E-05
   maximum displ.:     0.0328183 α      in ANC's #1, #3, #5, ...

   *** GEOMETRY OPTIMIZATION CONVERGED AFTER 32 ITERATIONS ***

------------------------------------------------------------------------
 total energy gain   :        -0.0093487 Eh       -5.8664 kcal/mol
 total RMSD          :         0.7060758 a0        0.3736 Å
 total power (kW/mol):        -0.7670299 (step)  -73.8827 (real)
------------------------------------------------------------------------

 ANCopt (total)                0 d,  0 h,  0 min,  0.332 sec
 optimizer setup                ...        0 min,  0.000 sec (  0.064%)
 model hessian                  ...        0 min,  0.007 sec (  2.146%)
 ANC generation                 ...        0 min,  0.001 sec (  0.259%)
 coordinate transformation      ...        0 min,  0.000 sec (  0.088%)
 single point calculation       ...        0 min,  0.314 sec ( 94.664%)
 optimization log               ...        0 min,  0.005 sec (  1.386%)
 hessian update                 ...        0 min,  0.001 sec (  0.369%)
 rational function              ...        0 min,  0.002 sec (  0.614%)

================
 final structure:
================
26
 xtb: 6.7.1 (edcfbbe)
N            1.18090389502271        0.33037847825020        0.54521362176811
C            1.07301618370603       -0.94522511349205        0.16848808805251
C           -0.18137550456049       -1.47807029263186       -0.15414622599943
C           -1.26873591503681       -0.61854053174718       -0.07284207523477
N           -1.13782211653161        0.65662243824587        0.28542312610933
C            0.08257985473254        1.05700858391684        0.57847819301478
C           -2.65772965402005       -1.07876436636916       -0.38298184837549
O           -3.61860074023913       -0.36937087759232       -0.48389864225235
O           -2.72224891165504       -2.41132922945284       -0.54492235909923
C            2.30516306814343       -1.73793997784632        0.14631240059823
C            3.36532897469306       -1.33477554980705        0.94780339373815
C            4.52467032621411       -2.09869654077013        0.94998604852494
C            4.60962763546366       -3.24789534978809        0.13396779359790
C            3.56380585265221       -3.64420534311964       -0.68732507329252
C            2.41722526852324       -2.88101429806714       -0.66491243396072
O            5.81198715508707       -3.84036294861972        0.28764078627187
C            6.49618639288131       -3.09188335237475        1.18635157121162
C            5.78337395149750       -2.03000653925584        1.62586815092351
H           -0.31667124053857       -2.50982541329032       -0.42903194197615
H            0.19447772129818        2.09071883979037        0.87993729813164
H           -3.63629292672200       -2.67363449822694       -0.73872723993816
H            3.26969227596440       -0.44957529573419        1.55541457092108
H            3.65245252898430       -4.51515406162100       -1.31642828141472
H            1.59670570744650       -3.15686606651216       -1.30865741289331
H            7.48599792168397       -3.42860962519123        1.42741966504365
H            6.09511229531010       -1.28987306869236        2.33320882652841

 Bond Distances (Angstroems)
 ---------------------------
N1-C2=1.3344         N1-C6=1.3174         C2-N1=1.3344         C2-C3=1.4005         C2-C10=1.4653        C3-C2=1.4005         
C3-C4=1.3884         C3-H19=1.0763        C4-C3=1.3884         C4-N5=1.3310         C4-C7=1.4958         N5-C4=1.3310         
N5-C6=1.3174         C6-N1=1.3174         C6-N5=1.3174         C6-H20=1.0826        C7-C4=1.4958         C7-O8=1.1986         
C7-O9=1.3439         O8-C7=1.1986         O9-C7=1.3439         O9-H21=0.9705        C10-C2=1.4653        C10-C11=1.3888       
C10-C15=1.4062       C11-C10=1.3888       C11-C12=1.3884       C11-H22=1.0779       C12-C11=1.3884       C12-C13=1.4120       
C12-C18=1.4303       C13-C12=1.4120       C13-C14=1.3876       C13-O16=1.3492       C14-C13=1.3876       C14-C15=1.3775       
C14-H23=1.0780       C15-C10=1.4062       C15-C14=1.3775       C15-H24=1.0788       O16-C13=1.3492       O16-C17=1.3550       
C17-O16=1.3550       C17-C18=1.3524       C17-H25=1.0730       C18-C12=1.4303       C18-C17=1.3524       C18-H26=1.0702       
H19-C3=1.0763        H20-C6=1.0826        H21-O9=0.9705        H22-C11=1.0779       H23-C14=1.0780       H24-C15=1.0788       
H25-C17=1.0730       H26-C18=1.0702       
 C  H  Rav=1.0767 sigma=0.0038  Rmin=1.0702  Rmax=1.0826     7
 C  C  Rav=1.4078 sigma=0.0378  Rmin=1.3524  Rmax=1.4958    12
 N  C  Rav=1.3250 sigma=0.0078  Rmin=1.3174  Rmax=1.3344     4
 O  H  Rav=0.9705 sigma=0.0000  Rmin=0.9705  Rmax=0.9705     1
 O  C  Rav=1.3117 sigma=0.0654  Rmin=1.1986  Rmax=1.3550     4

 selected bond angles (degree)
 --------------------
C6-N1-C2=117.84                C3-C2-N1=120.07                C10-C2-N1=116.96               C10-C2-C3=122.94               
C4-C3-C2=116.90                H19-C3-C2=122.42               H19-C3-C4=120.66               N5-C4-C3=122.13                
C7-C4-C3=121.64                C7-C4-N5=116.23                C6-N5-C4=116.24                N5-C6-N1=126.80                
H20-C6-N1=116.59               H20-C6-N5=116.61               O8-C7-C4=125.44                O9-C7-C4=112.00                
O9-C7-O8=122.56                H21-O9-C7=109.71               C11-C10-C2=118.43              C15-C10-C2=121.03              
C15-C10-C11=120.54             

 selected dihedral angles (degree)
 ---------------------------------
C3-C2-N1-C6=358.93            C10-C2-N1-C6=180.37           C4-C3-C2-N1=  0.62            C4-C3-C2-C10=179.09           
H19-C3-C2-N1=182.19           H19-C3-C2-C10=  0.66          N5-C4-C3-C2=  0.42            N5-C4-C3-H19=178.87           
C7-C4-C3-C2=180.50            C7-C4-C3-H19=358.96           C6-N5-C4-C3=359.08            C6-N5-C4-C7=179.00            
N5-C6-N1-C2=  0.55            H20-C6-N1-C2=180.43           N1-C6-N5-C4=  0.45            H20-C6-N5-C4=180.57           
O8-C7-C4-C3=189.00            O8-C7-C4-N5=  9.08            O9-C7-C4-C3=  8.89            O9-C7-C4-N5=188.97            
H21-O9-C7-C4=179.65           H21-O9-C7-O8=359.54           C11-C10-C2-N1= 23.64          C11-C10-C2-C3=205.13          
C15-C10-C2-N1=203.62          C15-C10-C2-C3= 25.10          
           -------------------------------------------------
          |                Final Singlepoint                |
           -------------------------------------------------

          ...................................................
          :                      SETUP                      :
          :.................................................:
          :  # basis functions                  80          :
          :  # atomic orbitals                  80          :
          :  # shells                           44          :
          :  # electrons                        88          :
          :  max. iterations                   250          :
          :  Hamiltonian                  GFN2-xTB          :
          :  restarted?                      false          :
          :  GBSA solvation                  false          :
          :  PC potential                    false          :
          :  electronic temp.          300.0000000     K    :
          :  accuracy                    1.0000000          :
          :  -> integral cutoff          0.2500000E+02      :
          :  -> integral neglect         0.1000000E-07      :
          :  -> SCF convergence          0.1000000E-05 Eh   :
          :  -> wf. convergence          0.1000000E-03 e    :
          :  Broyden damping             0.4000000          :
          :  net charge                          0          :
          :  unpaired electrons                  0          :
          ...................................................

 iter      E             dE          RMSdq      gap      omega  full diag
   1    -50.6670775 -0.506671E+02  0.121E-04    1.93       0.0  T
   2    -50.6670775 -0.799574E-10  0.800E-05    1.93     245.2  T
   3    -50.6670775 -0.775557E-10  0.465E-05    1.93     421.5  T

   *** convergence criteria satisfied after 3 iterations ***

         #    Occupation            Energy/Eh            Energy/eV
      -------------------------------------------------------------
         1        2.0000           -0.7565648             -20.5872
       ...           ...                  ...                  ...
        38        2.0000           -0.4510031             -12.2724
        39        2.0000           -0.4395222             -11.9600
        40        2.0000           -0.4350911             -11.8394
        41        2.0000           -0.4110814             -11.1861
        42        2.0000           -0.4087307             -11.1221
        43        2.0000           -0.4007528             -10.9050
        44        2.0000           -0.3760346             -10.2324 (HOMO)
        45                         -0.3050138              -8.2998 (LUMO)
        46                         -0.2775579              -7.5527
        47                         -0.2577310              -7.0132
        48                         -0.2296491              -6.2491
        49                         -0.2016612              -5.4875
       ...                                ...                  ...
        80                          0.7169394              19.5089
      -------------------------------------------------------------
                  HL-Gap            0.0710208 Eh            1.9326 eV
             Fermi-level           -0.3405242 Eh           -9.2661 eV

 SCC (total)                   0 d,  0 h,  0 min,  0.007 sec
 SCC setup                      ...        0 min,  0.000 sec (  2.054%)
 Dispersion                     ...        0 min,  0.000 sec (  1.514%)
 classical contributions        ...        0 min,  0.000 sec (  0.241%)
 integral evaluation            ...        0 min,  0.001 sec ( 14.512%)
 iterations                     ...        0 min,  0.003 sec ( 40.169%)
 molecular gradient             ...        0 min,  0.003 sec ( 40.124%)
 printout                       ...        0 min,  0.000 sec (  1.168%)

         :::::::::::::::::::::::::::::::::::::::::::::::::::::
         ::                     SUMMARY                     ::
         :::::::::::::::::::::::::::::::::::::::::::::::::::::
         :: total energy             -49.962913741076 Eh    ::
         :: gradient norm              0.000196759527 Eh/a0 ::
         :: HOMO-LUMO gap              1.932573352799 eV    ::
         ::.................................................::
         :: SCC energy               -50.667253140471 Eh    ::
         :: -> isotropic ES            0.069315259006 Eh    ::
         :: -> anisotropic ES          0.005310822867 Eh    ::
         :: -> anisotropic XC          0.023228641774 Eh    ::
         :: -> dispersion             -0.027852935897 Eh    ::
         :: repulsion energy           0.704339399395 Eh    ::
         :: add. restraining           0.000000000000 Eh    ::
         :: total charge              -0.000000000000 e     ::
         :::::::::::::::::::::::::::::::::::::::::::::::::::::

           -------------------------------------------------
          |                Property Printout                |
           -------------------------------------------------

    * Orbital Energies and Occupations

         #    Occupation            Energy/Eh            Energy/eV
      -------------------------------------------------------------
         1        2.0000           -0.7565648             -20.5872
       ...           ...                  ...                  ...
        32        2.0000           -0.4878702             -13.2756
        33        2.0000           -0.4876666             -13.2701
        34        2.0000           -0.4813150             -13.0972
        35        2.0000           -0.4702809             -12.7970
        36        2.0000           -0.4611403             -12.5483
        37        2.0000           -0.4525088             -12.3134
        38        2.0000           -0.4510031             -12.2724
        39        2.0000           -0.4395222             -11.9600
        40        2.0000           -0.4350911             -11.8394
        41        2.0000           -0.4110814             -11.1861
        42        2.0000           -0.4087307             -11.1221
        43        2.0000           -0.4007528             -10.9050
        44        2.0000           -0.3760346             -10.2324 (HOMO)
        45                         -0.3050138              -8.2998 (LUMO)
        46                         -0.2775579              -7.5527
        47                         -0.2577310              -7.0132
        48                         -0.2296491              -6.2491
        49                         -0.2016612              -5.4875
        50                         -0.1857661              -5.0550
        51                         -0.1253182              -3.4101
        52                         -0.0867926              -2.3617
        53                          0.0373809               1.0172
        54                          0.0567174               1.5434
        55                          0.0724520               1.9715
       ...                                ...                  ...
        80                          0.7169394              19.5089
      -------------------------------------------------------------
                  HL-Gap            0.0710208 Eh            1.9326 eV
             Fermi-level           -0.3405242 Eh           -9.2661 eV

     #   Z          covCN         q      C6AA      α(0)
     1   7 N        1.842    -0.236    27.024     7.704
     2   6 C        2.977     0.116    25.437     8.273
     3   6 C        2.910    -0.049    29.219     8.864
     4   6 C        2.983     0.085    26.094     8.379
     5   7 N        1.839    -0.220    26.646     7.650
     6   6 C        2.911     0.153    24.689     8.148
     7   6 C        2.696     0.353    21.006     7.501
     8   8 O        0.856    -0.370    21.085     6.156
     9   8 O        1.660    -0.380    20.464     6.107
    10   6 C        2.980    -0.003    28.086     8.693
    11   6 C        2.919    -0.029    28.733     8.790
    12   6 C        3.093    -0.008    28.100     8.688
    13   6 C        3.125     0.127    25.047     8.195
    14   6 C        2.906    -0.049    29.228     8.865
    15   6 C        2.929    -0.037    28.916     8.819
    16   8 O        1.721    -0.192    17.200     5.600
    17   6 C        3.065     0.081    26.121     8.381
    18   6 C        2.981    -0.067    29.664     8.934
    19   1 H        0.926     0.063     2.162     2.299
    20   1 H        0.925     0.057     2.239     2.340
    21   1 H        0.804     0.334     0.627     1.244
    22   1 H        0.926     0.066     2.129     2.282
    23   1 H        0.926     0.053     2.279     2.361
    24   1 H        0.926     0.046     2.372     2.408
    25   1 H        0.926     0.056     2.249     2.345
    26   1 H        0.927     0.050     2.325     2.385

 Mol. C6AA /au·bohr⁶  :      10430.314020
 Mol. C8AA /au·bohr⁸  :     259225.783529
 Mol. α(0) /au        :        161.410636


Wiberg/Mayer (AO) data.
largest (>0.10) Wiberg bond orders for each atom

 ---------------------------------------------------------------------------
     #   Z sym  total        # sym  WBO       # sym  WBO       # sym  WBO
 ---------------------------------------------------------------------------
     1   7 N    3.065 --     6 C    1.438     2 C    1.378
     2   6 C    3.972 --     1 N    1.378     3 C    1.354    10 C    1.064
     3   6 C    3.986 --     4 C    1.421     2 C    1.354    19 H    0.961
                             6 C    0.105
     4   6 C    3.979 --     3 C    1.421     5 N    1.383     7 C    0.970
     5   7 N    3.060 --     6 C    1.434     4 C    1.383
     6   6 C    3.964 --     1 N    1.438     5 N    1.434    20 H    0.954
                             3 C    0.105
     7   6 C    3.919 --     8 O    1.782     9 O    1.119     4 C    0.970
     8   8 O    2.073 --     7 C    1.782     9 O    0.179
     9   8 O    2.193 --     7 C    1.119    21 H    0.864     8 O    0.179
    10   6 C    3.987 --    11 C    1.424    15 C    1.327     2 C    1.064
    11   6 C    3.988 --    10 C    1.424    12 C    1.354    22 H    0.963
                            14 C    0.106
    12   6 C    3.986 --    11 C    1.354    13 C    1.264    18 C    1.195
    13   6 C    3.919 --    14 C    1.344    12 C    1.264    16 O    1.099
    14   6 C    3.988 --    15 C    1.499    13 C    1.344    23 H    0.966
                            11 C    0.106
    15   6 C    3.990 --    14 C    1.499    10 C    1.327    24 H    0.966
    16   8 O    2.413 --    17 C    1.104    13 C    1.099
    17   6 C    3.914 --    18 C    1.673    16 O    1.104    25 H    0.966
    18   6 C    3.980 --    17 C    1.673    12 C    1.195    26 H    0.972
    19   1 H    0.996 --     3 C    0.961
    20   1 H    0.996 --     6 C    0.954
    21   1 H    0.888 --     9 O    0.864
    22   1 H    0.996 --    11 C    0.963
    23   1 H    0.996 --    14 C    0.966
    24   1 H    0.997 --    15 C    0.966
    25   1 H    0.996 --    17 C    0.966
    26   1 H    0.997 --    18 C    0.972
 ---------------------------------------------------------------------------

Topologies differ in total number of bonds
Writing topology from bond orders to xtbtopo.mol

molecular dipole:
                 x           y           z       tot (Debye)
 q only:        1.192      -0.997       0.160
   full:        1.106      -1.464       0.030       4.663
molecular quadrupole (traceless):
                xx          xy          yy          xz          yz          zz
 q only:        1.483       5.257       1.652       5.943       1.993      -3.135
  q+dip:        1.866       6.377       2.819       7.316       4.866      -4.685
   full:       -0.428       7.650       1.490       5.682       1.978      -1.063

           -------------------------------------------------
          |                Geometry Summary                 |
           -------------------------------------------------

      molecular mass/u    :      240.2147139
   center of mass at/Å    :        1.5499052      -1.6067968       0.1979036
  moments of inertia/u·Å² :        0.3776016E+03   0.2679858E+04   0.3009651E+04
rotational constants/cm⁻¹ :        0.4464396E-01   0.6290495E-02   0.5601191E-02

 * 26 selected distances

     #   Z          #   Z                                           value/Å
     1   7 N        2   6 C                                       1.3344387
     2   6 C        3   6 C                                       1.4005412
     3   6 C        4   6 C                                       1.3884361
     4   6 C        5   7 N                                       1.3309896
     1   7 N        6   6 C                                       1.3173511
     5   7 N        6   6 C                                       1.3174110
     7   6 C        8   8 O                                       1.1986229
     7   6 C        9   8 O                                       1.3439185
    10   6 C       11   6 C                                       1.3888418
    11   6 C       12   6 C                                       1.3883994
    12   6 C       13   6 C                                       1.4120063
    13   6 C       14   6 C                                       1.3875616
    10   6 C       15   6 C                                       1.4061518
    14   6 C       15   6 C                                       1.3775378
    13   6 C       16   8 O                                       1.3491857
    16   8 O       17   6 C                                       1.3550025
    12   6 C       18   6 C                                       1.4303392 (max)
    17   6 C       18   6 C                                       1.3523532
     3   6 C       19   1 H                                       1.0762834
     6   6 C       20   1 H                                       1.0825691
     9   8 O       21   1 H                                       0.9704849 (min)
    11   6 C       22   1 H                                       1.0779227
    14   6 C       23   1 H                                       1.0780450
    15   6 C       24   1 H                                       1.0787745
    17   6 C       25   1 H                                       1.0729518
    18   6 C       26   1 H                                       1.0701913

 * 5 distinct bonds (by element types)

   Z      Z             #   av. dist./Å        max./Å        min./Å
   1 H    6 C           7     1.0766768     1.0825691     1.0701913
   6 C    6 C          10     1.3932168     1.4303392     1.3523532
   6 C    7 N           4     1.3250476     1.3344387     1.3173511
   1 H    8 O           1     0.9704849     0.9704849     0.9704849
   6 C    8 O           4     1.3116824     1.3550025     1.1986229


optimized geometry written to: xtbopt.xyz


           -------------------------------------------------
          | TOTAL ENERGY              -49.962913741076 Eh   |
          | GRADIENT NORM               0.000196759527 Eh/α |
          | HOMO-LUMO GAP               1.932573352799 eV   |
           -------------------------------------------------

------------------------------------------------------------------------
 * finished run on 2024/12/17 at 14:08:30.512     
------------------------------------------------------------------------
 total:
 * wall-time:     0 d,  0 h,  0 min,  0.376 sec
 *  cpu-time:     0 d,  0 h,  0 min,  2.958 sec
 * ratio c/w:     7.871 speedup
 SCF:
 * wall-time:     0 d,  0 h,  0 min,  0.018 sec
 *  cpu-time:     0 d,  0 h,  0 min,  0.145 sec
 * ratio c/w:     7.930 speedup
 ANC optimizer:
 * wall-time:     0 d,  0 h,  0 min,  0.340 sec
 *  cpu-time:     0 d,  0 h,  0 min,  2.687 sec
 * ratio c/w:     7.903 speedup

