      -----------------------------------------------------------      
     |                   =====================                   |     
     |                           x T B                           |     
     |                   =====================                   |     
     |                         S. Grimme                         |     
     |          Mulliken Center for Theoretical Chemistry        |     
     |                    University of Bonn                     |     
      -----------------------------------------------------------      

   * xtb version 6.7.1 (edcfbbe) compiled by 'conda@3ef47c1a292c' on 2024-11-25

   xtb is free software: you can redistribute it and/or modify it under
   the terms of the GNU Lesser General Public License as published by
   the Free Software Foundation, either version 3 of the License, or
   (at your option) any later version.
   
   xtb is distributed in the hope that it will be useful,
   but WITHOUT ANY WARRANTY; without even the implied warranty of
   MERCHANTABILITY or FITNESS FOR A PARTICULAR PURPOSE.  See the
   GNU Lesser General Public License for more details.
   
   Cite this work as:
   * C. Bannwarth, E. Caldeweyher, S. Ehlert, A. Hansen, P. Pracht,
     J. Seibert, S. Spicher, S. Grimme, WIREs Comput. Mol. Sci., 2020, 11,
     e01493. DOI: 10.1002/wcms.1493
   
   for GFN2-xTB:
   * C. Bannwarth, S. Ehlert and S. Grimme., J. Chem. Theory Comput., 2019,
     15, 1652-1671. DOI: 10.1021/acs.jctc.8b01176
   for GFN1-xTB:
   * S. Grimme, C. Bannwarth, P. Shushkov, J. Chem. Theory Comput., 2017,
     13, 1989-2009. DOI: 10.1021/acs.jctc.7b00118
   for GFN0-xTB:
   * P. Pracht, E. Caldeweyher, S. Ehlert, S. Grimme, ChemRxiv, 2019, preprint.
     DOI: 10.26434/chemrxiv.8326202.v1
   for GFN-FF:
   * S. Spicher and S. Grimme, Angew. Chem. Int. Ed., 2020, 59, 15665-15673.
     DOI: 10.1002/anie.202004239
   
   for ALPB and GBSA implicit solvation:
   * S. Ehlert, M. Stahn, S. Spicher, S. Grimme, J. Chem. Theory Comput.,
     2021, 17, 4250-4261. DOI: 10.1021/acs.jctc.1c00471
   
   for ddCOSMO and CPCM-X implicit solvation:
   * M. Stahn, S. Ehlert, S. Grimme, J. Phys. Chem. A,
     2023, XX, XXXX-XXXX. DOI: 10.1021/acs.jpca.3c04382
   
   for DFT-D4:
   * E. Caldeweyher, C. Bannwarth and S. Grimme, J. Chem. Phys., 2017,
     147, 034112. DOI: 10.1063/1.4993215
   * E. Caldeweyher, S. Ehlert, A. Hansen, H. Neugebauer, S. Spicher,
     C. Bannwarth and S. Grimme, J. Chem. Phys., 2019, 150, 154122.
     DOI: 10.1063/1.5090222
   * E. Caldeweyher, J.-M. Mewes, S. Ehlert and S. Grimme, Phys. Chem. Chem. Phys.
     2020, 22, 8499-8512. DOI: 10.1039/D0CP00502A
   
   for sTDA-xTB:
   * S. Grimme and C. Bannwarth, J. Chem. Phys., 2016, 145, 054103.
     DOI: 10.1063/1.4959605
   
   in the mass-spec context:
   * V. Asgeirsson, C. Bauer and S. Grimme, Chem. Sci., 2017, 8, 4879.
     DOI: 10.1039/c7sc00601b
   * J. Koopman and S. Grimme, ACS Omega 2019, 4, 12, 15120-15133.
     DOI: 10.1021/acsomega.9b02011
   
   for metadynamics refer to:
   * S. Grimme, J. Chem. Theory Comput., 2019, 155, 2847-2862
     DOI: 10.1021/acs.jctc.9b00143
   
   for SPH calculations refer to:
   * S. Spicher and S. Grimme, J. Chem. Theory Comput., 2021, 17, 1701-1714
     DOI: 10.1021/acs.jctc.0c01306
   
   for ONIOM refer to:
   * C. Plett, A. Katbashev, S. Ehlert, S. Grimme, M. Bursch,
     Phys. Chem. Chem. Phys., 2023, 25, 17860-17868. DOI: 10.1039/D3CP02178E
   
   for DIPRO refer to:
   * J. Kohn, N. Gildemeister, S. Grimme, D. Fazzi, A. Hansen,
     J. Chem. Phys., 2023, just accepted.
   
   for PTB refer to:
   * S. Grimme, M. Mueller, A. Hansen, J. Chem. Phys., 2023, 158, 124111.
     DOI: 10.1063/5.0137838
   
   with help from (in alphabetical order)
   P. Atkinson, C. Bannwarth, F. Bohle, G. Brandenburg, E. Caldeweyher
   M. Checinski, S. Dohm, S. Ehlert, S. Ehrlich, I. Gerasimov, C. Hölzer
   A. Katbashev, J. Kohn, J. Koopman, C. Lavigne, S. Lehtola, F. März, M. Müller,
   F. Musil, H. Neugebauer, J. Pisarek, C. Plett, P. Pracht, F. Pultar,
   J. Seibert, P. Shushkov, S. Spicher, M. Stahn, M. Steiner, T. Strunk,
   J. Stückrath, T. Rose, and J. Unsleber
   
 * started run on 2024/12/17 at 14:08:00.699     
   ID    Z sym.   atoms
    1    7 N      1, 5
    2    6 C      2-4, 6, 7, 10-15, 18, 19, 21
    3    8 O      8, 9, 17, 20
    4   17 Cl     16
    5    1 H      22-32

           -------------------------------------------------
          |                Calculation Setup                |
           -------------------------------------------------

          program call               : xtb K020.xyz --opt --namespace K020
          calculation namespace      : K020
          coordinate file            : K020.xyz
          omp threads                :                     8


           -------------------------------------------------
          |                 G F N 2 - x T B                 |
           -------------------------------------------------

        Reference                      10.1021/acs.jctc.8b01176
      * Hamiltonian:
        H0-scaling (s, p, d)           1.850000    2.230000    2.230000
        zeta-weighting                 0.500000
      * Dispersion:
        s8                             2.700000
        a1                             0.520000
        a2                             5.000000
        s9                             5.000000
      * Repulsion:
        kExp                           1.500000    1.000000
        rExp                           1.000000
      * Coulomb:
        alpha                          2.000000
        third order                    shell-resolved
        anisotropic                    true
        a3                             3.000000
        a5                             4.000000
        cn-shift                       1.200000
        cn-exp                         4.000000
        max-rad                        5.000000


          ...................................................
          :                      SETUP                      :
          :.................................................:
          :  # basis functions                 101          :
          :  # atomic orbitals                 100          :
          :  # shells                           54          :
          :  # electrons                       108          :
          :  max. iterations                   250          :
          :  Hamiltonian                  GFN2-xTB          :
          :  restarted?                      false          :
          :  GBSA solvation                  false          :
          :  PC potential                    false          :
          :  electronic temp.          300.0000000     K    :
          :  accuracy                    1.0000000          :
          :  -> integral cutoff          0.2500000E+02      :
          :  -> integral neglect         0.1000000E-07      :
          :  -> SCF convergence          0.1000000E-05 Eh   :
          :  -> wf. convergence          0.1000000E-03 e    :
          :  Broyden damping             0.4000000          :
          :  net charge                          0          :
          :  unpaired electrons                  0          :
          ...................................................

 iter      E             dE          RMSdq      gap      omega  full diag
   1    -62.8065240 -0.628065E+02  0.516E+00    2.29       0.0  T
   2    -62.8781292 -0.716052E-01  0.296E+00    2.27       1.0  T
   3    -62.8734485  0.468076E-02  0.129E+00    2.01       1.0  T
   4    -62.8867778 -0.133293E-01  0.324E-01    1.94       1.0  T
   5    -62.8888788 -0.210101E-02  0.114E-01    1.91       1.0  T
   6    -62.8891006 -0.221828E-03  0.555E-02    1.90       1.0  T
   7    -62.8891208 -0.202018E-04  0.290E-02    1.90       1.0  T
   8    -62.8891308 -0.999946E-05  0.187E-02    1.91       1.0  T
   9    -62.8891342 -0.344098E-05  0.129E-02    1.91       1.4  T
  10    -62.8891360 -0.179211E-05  0.775E-03    1.91       2.3  T
  11    -62.8891368 -0.814038E-06  0.407E-03    1.91       4.3  T
  12    -62.8891371 -0.215154E-06  0.209E-03    1.91       8.5  T
  13    -62.8891371 -0.436630E-07  0.905E-04    1.91      19.5  T
  14    -62.8891371 -0.775850E-08  0.614E-04    1.91      28.8  T

   *** convergence criteria satisfied after 14 iterations ***

         #    Occupation            Energy/Eh            Energy/eV
      -------------------------------------------------------------
         1        2.0000           -1.0658715             -29.0038
       ...           ...                  ...                  ...
        48        2.0000           -0.4377432             -11.9116
        49        2.0000           -0.4324601             -11.7678
        50        2.0000           -0.4273386             -11.6285
        51        2.0000           -0.4240372             -11.5386
        52        2.0000           -0.4122189             -11.2170
        53        2.0000           -0.4120193             -11.2116
        54        2.0000           -0.3920291             -10.6677 (HOMO)
        55                         -0.3219394              -8.7604 (LUMO)
        56                         -0.2848629              -7.7515
        57                         -0.2641535              -7.1880
        58                         -0.2615695              -7.1177
        59                         -0.2333072              -6.3486
       ...                                ...                  ...
       100                          0.6287928              17.1103
      -------------------------------------------------------------
                  HL-Gap            0.0700897 Eh            1.9072 eV
             Fermi-level           -0.3569843 Eh           -9.7140 eV

 SCC (total)                   0 d,  0 h,  0 min,  0.029 sec
 SCC setup                      ...        0 min,  0.000 sec (  0.454%)
 Dispersion                     ...        0 min,  0.000 sec (  1.603%)
 classical contributions        ...        0 min,  0.000 sec (  0.219%)
 integral evaluation            ...        0 min,  0.003 sec ( 10.168%)
 iterations                     ...        0 min,  0.021 sec ( 72.071%)
 molecular gradient             ...        0 min,  0.004 sec ( 14.764%)
 printout                       ...        0 min,  0.000 sec (  0.338%)

         :::::::::::::::::::::::::::::::::::::::::::::::::::::
         ::                     SUMMARY                     ::
         :::::::::::::::::::::::::::::::::::::::::::::::::::::
         :: total energy             -62.204606677107 Eh    ::
         :: gradient norm              0.089598174060 Eh/a0 ::
         :: HOMO-LUMO gap              1.907236885487 eV    ::
         ::.................................................::
         :: SCC energy               -62.889171602399 Eh    ::
         :: -> isotropic ES            0.100440960748 Eh    ::
         :: -> anisotropic ES          0.006472770848 Eh    ::
         :: -> anisotropic XC          0.023122404148 Eh    ::
         :: -> dispersion             -0.034798895896 Eh    ::
         :: repulsion energy           0.684564925292 Eh    ::
         :: add. restraining           0.000000000000 Eh    ::
         :: total charge               0.000000000000 e     ::
         :::::::::::::::::::::::::::::::::::::::::::::::::::::

      ----------------------------------------------------------- 
     |                   =====================                   |
     |                        A N C O P T                        |
     |                   =====================                   |
     |               Approximate Normal Coordinate               |
     |                Rational Function Optimizer                |
      ----------------------------------------------------------- 
      ----------------------------------------------------------- 
     |                   =====================                   |
     |                        A N C O P T                        |
     |                   =====================                   |
     |               Approximate Normal Coordinate               |
     |                Rational Function Optimizer                |
      ----------------------------------------------------------- 

          ...................................................
          :                      SETUP                      :
          :.................................................:
          :   optimization level            normal          :
          :   max. optcycles                   200          :
          :   ANC micro-cycles                  20          :
          :   degrees of freedom                90          :
          :.................................................:
          :   RF solver                   davidson          :
          :   write xtbopt.log                true          :
          :   linear?                        false          :
          :   energy convergence         0.5000000E-05 Eh   :
          :   grad. convergence          0.1000000E-02 Eh/α :
          :   maxmium RF displ.          1.0000000          :
          :   Hlow (freq-cutoff)         0.1000000E-01      :
          :   Hmax (freq-cutoff)         5.0000000          :
          :   S6 in model hess.         20.0000000          :
          ...................................................

generating ANC from exact Hessian ...
Using Lindh-Hessian (1995)
 Shifting diagonal of input Hessian by    9.6610580951696518E-003
 Lowest  eigenvalues of input Hessian
    0.000000    0.000000    0.000000    0.000000    0.000000    0.000000
    0.010000    0.010203    0.010737    0.011539    0.011993    0.012668
    0.015735    0.016788    0.019999    0.021661    0.022946    0.024000
 Highest eigenvalues
    1.951949    1.974269    2.037396    2.075855    2.117617    2.331812


........................................................................
.............................. CYCLE    1 ..............................
........................................................................

 iter      E             dE          RMSdq      gap      omega  full diag
   1    -62.8891371 -0.628891E+02  0.352E-04    1.91       0.0  T
   2    -62.8891371 -0.539622E-09  0.288E-04    1.91      61.5  T
   3    -62.8891371 -0.325997E-09  0.221E-04    1.91      79.8  T
     SCC iter.                  ...        0 min,  0.004 sec
     gradient                   ...        0 min,  0.005 sec
 * total energy  :   -62.2046067 Eh     change       -0.4052289E-08 Eh
   gradient norm :     0.0895975 Eh/α   predicted     0.0000000E+00 (-100.00%)
   displ. norm   :     0.2020834 α      lambda       -0.1028729E-01
   maximum displ.:     0.0833631 α      in ANC's #44, #30, #8, ...

........................................................................
.............................. CYCLE    2 ..............................
........................................................................

 iter      E             dE          RMSdq      gap      omega  full diag
   1    -62.9238969 -0.629239E+02  0.177E-01    1.96       0.0  T
   2    -62.9240039 -0.107026E-03  0.115E-01    1.95       1.0  T
   3    -62.9239914  0.125538E-04  0.554E-02    1.95       1.0  T
   4    -62.9240349 -0.434918E-04  0.156E-02    1.95       1.1  T
   5    -62.9240395 -0.468833E-05  0.630E-03    1.95       2.8  T
   6    -62.9240398 -0.252089E-06  0.454E-03    1.95       3.9  T
   7    -62.9240399 -0.128690E-06  0.311E-03    1.95       5.7  T
   8    -62.9240401 -0.125076E-06  0.212E-03    1.95       8.3  T
   9    -62.9240401 -0.587535E-07  0.110E-03    1.95      16.0  T
  10    -62.9240401 -0.136563E-07  0.581E-04    1.95      30.4  T
  11    -62.9240401 -0.473467E-08  0.236E-04    1.95      75.0  T
     SCC iter.                  ...        0 min,  0.016 sec
     gradient                   ...        0 min,  0.004 sec
 * total energy  :   -62.2114696 Eh     change       -0.6862951E-02 Eh
   gradient norm :     0.0329336 Eh/α   predicted    -0.5354463E-02 ( -21.98%)
   displ. norm   :     0.1897845 α      lambda       -0.2713917E-02
   maximum displ.:     0.0645470 α      in ANC's #1, #36, #9, ...

........................................................................
.............................. CYCLE    3 ..............................
........................................................................

 iter      E             dE          RMSdq      gap      omega  full diag
   1    -62.9381298 -0.629381E+02  0.113E-01    1.97       0.0  T
   2    -62.9381579 -0.280480E-04  0.722E-02    1.97       1.0  T
   3    -62.9381416  0.162774E-04  0.350E-02    1.97       1.0  T
   4    -62.9381692 -0.276167E-04  0.822E-03    1.97       2.2  T
   5    -62.9381701 -0.910017E-06  0.400E-03    1.97       4.4  T
   6    -62.9381702 -0.109564E-06  0.278E-03    1.97       6.4  T
   7    -62.9381703 -0.573507E-07  0.189E-03    1.97       9.4  T
   8    -62.9381703 -0.391487E-07  0.126E-03    1.97      14.0  T
   9    -62.9381703 -0.190631E-07  0.727E-04    1.97      24.3  T
  10    -62.9381704 -0.576881E-08  0.357E-04    1.97      49.5  T
     SCC iter.                  ...        0 min,  0.016 sec
     gradient                   ...        0 min,  0.004 sec
 * total energy  :   -62.2130871 Eh     change       -0.1617437E-02 Eh
   gradient norm :     0.0109258 Eh/α   predicted    -0.1406521E-02 ( -13.04%)
   displ. norm   :     0.1570926 α      lambda       -0.5480777E-03
   maximum displ.:     0.0762487 α      in ANC's #1, #3, #2, ...

........................................................................
.............................. CYCLE    4 ..............................
........................................................................

 iter      E             dE          RMSdq      gap      omega  full diag
   1    -62.9376608 -0.629377E+02  0.546E-02    1.97       0.0  T
   2    -62.9376649 -0.409955E-05  0.326E-02    1.97       1.0  T
   3    -62.9376616  0.324321E-05  0.130E-02    1.97       1.4  T
   4    -62.9376659 -0.430828E-05  0.344E-03    1.97       5.1  T
   5    -62.9376661 -0.187647E-06  0.170E-03    1.97      10.4  T
   6    -62.9376662 -0.253410E-07  0.106E-03    1.97      16.6  T
   7    -62.9376662 -0.643931E-08  0.667E-04    1.97      26.5  T
   8    -62.9376662 -0.456973E-08  0.430E-04    1.97      41.1  T
     SCC iter.                  ...        0 min,  0.011 sec
     gradient                   ...        0 min,  0.004 sec
 * total energy  :   -62.2135030 Eh     change       -0.4159273E-03 Eh
   gradient norm :     0.0085905 Eh/α   predicted    -0.2808057E-03 ( -32.49%)
   displ. norm   :     0.2915655 α      lambda       -0.5895588E-03
   maximum displ.:     0.1434900 α      in ANC's #3, #1, #2, ...

........................................................................
.............................. CYCLE    5 ..............................
........................................................................

 iter      E             dE          RMSdq      gap      omega  full diag
   1    -62.9349766 -0.629350E+02  0.850E-02    1.98       0.0  T
   2    -62.9349861 -0.947656E-05  0.506E-02    1.98       1.0  T
   3    -62.9349789  0.717342E-05  0.204E-02    1.98       1.0  T
   4    -62.9349887 -0.975771E-05  0.499E-03    1.98       3.5  T
   5    -62.9349890 -0.397436E-06  0.272E-03    1.98       6.5  T
   6    -62.9349891 -0.712291E-07  0.168E-03    1.98      10.5  T
   7    -62.9349891 -0.174557E-07  0.106E-03    1.98      16.6  T
   8    -62.9349891 -0.120544E-07  0.686E-04    1.98      25.8  T
   9    -62.9349892 -0.423568E-08  0.363E-04    1.98      48.7  T
     SCC iter.                  ...        0 min,  0.012 sec
     gradient                   ...        0 min,  0.004 sec
 * total energy  :   -62.2139205 Eh     change       -0.4174697E-03 Eh
   gradient norm :     0.0067562 Eh/α   predicted    -0.3198486E-03 ( -23.38%)
   displ. norm   :     0.3310543 α      lambda       -0.4190924E-03
   maximum displ.:     0.1662699 α      in ANC's #3, #1, #6, ...

........................................................................
.............................. CYCLE    6 ..............................
........................................................................

 iter      E             dE          RMSdq      gap      omega  full diag
   1    -62.9334742 -0.629335E+02  0.905E-02    1.99       0.0  T
   2    -62.9334820 -0.776209E-05  0.538E-02    1.98       1.0  T
   3    -62.9334734  0.860982E-05  0.202E-02    1.98       1.0  T
   4    -62.9334845 -0.111556E-04  0.450E-03    1.98       3.9  T
   5    -62.9334848 -0.300873E-06  0.254E-03    1.98       7.0  T
   6    -62.9334849 -0.590202E-07  0.152E-03    1.98      11.7  T
   7    -62.9334849 -0.162802E-07  0.947E-04    1.98      18.7  T
   8    -62.9334849 -0.917984E-08  0.620E-04    1.98      28.5  T
     SCC iter.                  ...        0 min,  0.011 sec
     gradient                   ...        0 min,  0.004 sec
 * total energy  :   -62.2142561 Eh     change       -0.3355895E-03 Eh
   gradient norm :     0.0081205 Eh/α   predicted    -0.2325155E-03 ( -30.71%)
   displ. norm   :     0.4481111 α      lambda       -0.5555645E-03
   maximum displ.:     0.2241961 α      in ANC's #6, #3, #1, ...

........................................................................
.............................. CYCLE    7 ..............................
........................................................................

 iter      E             dE          RMSdq      gap      omega  full diag
   1    -62.9328034 -0.629328E+02  0.122E-01    1.99       0.0  T
   2    -62.9328130 -0.959751E-05  0.724E-02    1.99       1.0  T
   3    -62.9327963  0.166776E-04  0.252E-02    1.99       1.0  T
   4    -62.9328169 -0.205941E-04  0.510E-03    1.99       3.5  T
   5    -62.9328172 -0.324247E-06  0.301E-03    1.99       5.9  T
   6    -62.9328173 -0.814752E-07  0.183E-03    1.99       9.7  T
   7    -62.9328173 -0.270367E-07  0.112E-03    1.99      15.8  T
   8    -62.9328173 -0.115492E-07  0.744E-04    1.99      23.8  T
   9    -62.9328174 -0.516377E-08  0.395E-04    1.99      44.8  T
     SCC iter.                  ...        0 min,  0.012 sec
     gradient                   ...        0 min,  0.004 sec
 * total energy  :   -62.2147161 Eh     change       -0.4600027E-03 Eh
   gradient norm :     0.0115680 Eh/α   predicted    -0.3335628E-03 ( -27.49%)
   displ. norm   :     0.5194514 α      lambda       -0.7425073E-03
   maximum displ.:     0.2614235 α      in ANC's #6, #3, #2, ...

........................................................................
.............................. CYCLE    8 ..............................
........................................................................

 iter      E             dE          RMSdq      gap      omega  full diag
   1    -62.9335407 -0.629335E+02  0.143E-01    1.99       0.0  T
   2    -62.9335499 -0.920571E-05  0.848E-02    1.99       1.0  T
   3    -62.9335271  0.228217E-04  0.275E-02    1.99       1.0  T
   4    -62.9335545 -0.273992E-04  0.495E-03    1.99       3.6  T
   5    -62.9335547 -0.220141E-06  0.297E-03    1.99       6.0  T
   6    -62.9335548 -0.927834E-07  0.177E-03    1.99      10.0  T
   7    -62.9335548 -0.273887E-07  0.102E-03    1.99      17.3  T
   8    -62.9335548 -0.821930E-08  0.711E-04    1.99      24.9  T
   9    -62.9335548 -0.480372E-08  0.400E-04    1.99      44.1  T
     SCC iter.                  ...        0 min,  0.012 sec
     gradient                   ...        0 min,  0.004 sec
 * total energy  :   -62.2153189 Eh     change       -0.6028279E-03 Eh
   gradient norm :     0.0141084 Eh/α   predicted    -0.4714325E-03 ( -21.80%)
   displ. norm   :     0.4994383 α      lambda       -0.8483931E-03
   maximum displ.:     0.2441588 α      in ANC's #2, #3, #6, ...

........................................................................
.............................. CYCLE    9 ..............................
........................................................................

 iter      E             dE          RMSdq      gap      omega  full diag
   1    -62.9366716 -0.629367E+02  0.139E-01    1.98       0.0  T
   2    -62.9366804 -0.874880E-05  0.825E-02    1.98       1.0  T
   3    -62.9366597  0.206355E-04  0.261E-02    1.98       1.0  T
   4    -62.9366845 -0.247166E-04  0.473E-03    1.98       3.7  T
   5    -62.9366847 -0.269958E-06  0.278E-03    1.98       6.3  T
   6    -62.9366848 -0.951998E-07  0.157E-03    1.98      11.3  T
   7    -62.9366848 -0.150331E-07  0.934E-04    1.98      18.9  T
   8    -62.9366848 -0.813239E-08  0.643E-04    1.98      27.5  T
     SCC iter.                  ...        0 min,  0.011 sec
     gradient                   ...        0 min,  0.004 sec
 * total energy  :   -62.2159707 Eh     change       -0.6517846E-03 Eh
   gradient norm :     0.0113731 Eh/α   predicted    -0.5300149E-03 ( -18.68%)
   displ. norm   :     0.5796953 α      lambda       -0.6750321E-03
   maximum displ.:     0.3093702 α      in ANC's #2, #3, #1, ...

........................................................................
.............................. CYCLE   10 ..............................
........................................................................

 iter      E             dE          RMSdq      gap      omega  full diag
   1    -62.9366121 -0.629366E+02  0.157E-01    1.98       0.0  T
   2    -62.9366230 -0.108960E-04  0.921E-02    1.98       1.0  T
   3    -62.9366027  0.203398E-04  0.274E-02    1.98       1.0  T
   4    -62.9366277 -0.250011E-04  0.598E-03    1.98       3.0  T
   5    -62.9366280 -0.360350E-06  0.342E-03    1.98       5.2  T
   6    -62.9366282 -0.111434E-06  0.201E-03    1.98       8.8  T
   7    -62.9366282 -0.306675E-07  0.120E-03    1.98      14.8  T
   8    -62.9366282 -0.116155E-07  0.815E-04    1.98      21.7  T
   9    -62.9366282 -0.618964E-08  0.419E-04    1.98      42.2  T
     SCC iter.                  ...        0 min,  0.012 sec
     gradient                   ...        0 min,  0.004 sec
 * total energy  :   -62.2164911 Eh     change       -0.5203845E-03 Eh
   gradient norm :     0.0091377 Eh/α   predicted    -0.4509401E-03 ( -13.34%)
   displ. norm   :     0.4414593 α      lambda       -0.6624773E-03
   maximum displ.:     0.2731167 α      in ANC's #2, #3, #1, ...

........................................................................
.............................. CYCLE   11 ..............................
........................................................................

 iter      E             dE          RMSdq      gap      omega  full diag
   1    -62.9420653 -0.629421E+02  0.134E-01    1.96       0.0  T
   2    -62.9420787 -0.134096E-04  0.799E-02    1.97       1.0  T
   3    -62.9420597  0.189603E-04  0.280E-02    1.97       1.0  T
   4    -62.9420834 -0.237162E-04  0.576E-03    1.97       3.1  T
   5    -62.9420839 -0.497046E-06  0.302E-03    1.97       5.8  T
   6    -62.9420840 -0.101776E-06  0.166E-03    1.97      10.6  T
   7    -62.9420841 -0.166039E-07  0.102E-03    1.97      17.4  T
   8    -62.9420841 -0.108199E-07  0.634E-04    1.97      27.9  T
   9    -62.9420841 -0.316805E-08  0.370E-04    1.97      47.8  T
     SCC iter.                  ...        0 min,  0.013 sec
     gradient                   ...        0 min,  0.004 sec
 * total energy  :   -62.2168125 Eh     change       -0.3214210E-03 Eh
   gradient norm :     0.0094989 Eh/α   predicted    -0.3958043E-03 (  23.14%)
   displ. norm   :     0.5762566 α      lambda       -0.5443577E-03
   maximum displ.:     0.3353177 α      in ANC's #2, #3, #1, ...

........................................................................
.............................. CYCLE   12 ..............................
........................................................................

 iter      E             dE          RMSdq      gap      omega  full diag
   1    -62.9355587 -0.629356E+02  0.163E-01    1.97       0.0  T
   2    -62.9355753 -0.166018E-04  0.957E-02    1.97       1.0  T
   3    -62.9355586  0.166928E-04  0.294E-02    1.97       1.0  T
   4    -62.9355804 -0.218545E-04  0.693E-03    1.97       2.6  T
   5    -62.9355811 -0.661708E-06  0.383E-03    1.97       4.6  T
   6    -62.9355812 -0.130915E-06  0.197E-03    1.97       9.0  T
   7    -62.9355813 -0.298255E-07  0.124E-03    1.97      14.3  T
   8    -62.9355813 -0.156560E-07  0.827E-04    1.97      21.4  T
   9    -62.9355813 -0.633256E-08  0.430E-04    1.97      41.1  T
     SCC iter.                  ...        0 min,  0.012 sec
     gradient                   ...        0 min,  0.004 sec
 * total energy  :   -62.2171183 Eh     change       -0.3057972E-03 Eh
   gradient norm :     0.0106222 Eh/α   predicted    -0.3625676E-03 (  18.56%)
   displ. norm   :     0.1803821 α      lambda       -0.2695523E-03
   maximum displ.:     0.1364475 α      in ANC's #2, #3, #1, ...

........................................................................
.............................. CYCLE   13 ..............................
........................................................................

 iter      E             dE          RMSdq      gap      omega  full diag
   1    -62.9374167 -0.629374E+02  0.585E-02    1.97       0.0  T
   2    -62.9374199 -0.319948E-05  0.350E-02    1.97       1.0  T
   3    -62.9374154  0.451316E-05  0.143E-02    1.97       1.2  T
   4    -62.9374211 -0.570959E-05  0.242E-03    1.97       7.3  T
   5    -62.9374212 -0.849294E-07  0.120E-03    1.97      14.8  T
   6    -62.9374212 -0.228345E-07  0.567E-04    1.97      31.2  T
   7    -62.9374212 -0.242719E-08  0.282E-04    1.97      62.6  T
     SCC iter.                  ...        0 min,  0.009 sec
     gradient                   ...        0 min,  0.004 sec
 * total energy  :   -62.2173527 Eh     change       -0.2344363E-03 Eh
   gradient norm :     0.0069100 Eh/α   predicted    -0.1391625E-03 ( -40.64%)
   displ. norm   :     0.5310941 α      lambda       -0.7099461E-03
   maximum displ.:     0.4214975 α      in ANC's #2, #3, #4, ...

........................................................................
.............................. CYCLE   14 ..............................
........................................................................

 iter      E             dE          RMSdq      gap      omega  full diag
   1    -62.9399122 -0.629399E+02  0.181E-01    1.97       0.0  T
   2    -62.9399342 -0.220071E-04  0.108E-01    1.96       1.0  T
   3    -62.9399024  0.318233E-04  0.367E-02    1.97       1.0  T
   4    -62.9399419 -0.394708E-04  0.650E-03    1.96       2.7  T
   5    -62.9399425 -0.597749E-06  0.332E-03    1.96       5.3  T
   6    -62.9399426 -0.152574E-06  0.155E-03    1.96      11.4  T
   7    -62.9399426 -0.223744E-07  0.662E-04    1.96      26.7  T
   8    -62.9399426 -0.600811E-08  0.338E-04    1.96      52.4  T
     SCC iter.                  ...        0 min,  0.011 sec
     gradient                   ...        0 min,  0.004 sec
 * total energy  :   -62.2178413 Eh     change       -0.4885589E-03 Eh
   gradient norm :     0.0095208 Eh/α   predicted    -0.4550994E-03 (  -6.85%)
   displ. norm   :     0.6387107 α      lambda       -0.5437115E-03
   maximum displ.:     0.5144335 α      in ANC's #2, #3, #1, ...

........................................................................
.............................. CYCLE   15 ..............................
........................................................................

 iter      E             dE          RMSdq      gap      omega  full diag
   1    -62.9384756 -0.629385E+02  0.207E-01    1.98       0.0  T
   2    -62.9384940 -0.184172E-04  0.122E-01    1.98       1.0  T
   3    -62.9384682  0.257592E-04  0.324E-02    1.98       1.0  T
   4    -62.9385001 -0.318484E-04  0.685E-03    1.98       2.6  T
   5    -62.9385006 -0.497584E-06  0.337E-03    1.98       5.2  T
   6    -62.9385007 -0.113524E-06  0.171E-03    1.98      10.3  T
   7    -62.9385007 -0.347494E-07  0.671E-04    1.98      26.4  T
   8    -62.9385007 -0.456171E-08  0.418E-04    1.98      42.3  T
     SCC iter.                  ...        0 min,  0.011 sec
     gradient                   ...        0 min,  0.004 sec
 * total energy  :   -62.2182387 Eh     change       -0.3974517E-03 Eh
   gradient norm :     0.0109736 Eh/α   predicted    -0.3827647E-03 (  -3.70%)
   displ. norm   :     0.5335398 α      lambda       -0.4939939E-03
   maximum displ.:     0.4511857 α      in ANC's #2, #4, #3, ...

........................................................................
.............................. CYCLE   16 ..............................
........................................................................

 iter      E             dE          RMSdq      gap      omega  full diag
   1    -62.9392879 -0.629393E+02  0.175E-01    1.98       0.0  T
   2    -62.9392947 -0.678357E-05  0.104E-01    1.98       1.0  T
   3    -62.9392807  0.139839E-04  0.218E-02    1.98       1.0  T
   4    -62.9392980 -0.172769E-04  0.488E-03    1.98       3.6  T
   5    -62.9392982 -0.153678E-06  0.260E-03    1.98       6.8  T
   6    -62.9392982 -0.789423E-07  0.116E-03    1.98      15.3  T
   7    -62.9392983 -0.120585E-07  0.657E-04    1.98      26.9  T
   8    -62.9392983 -0.397621E-08  0.468E-04    1.98      37.8  T
     SCC iter.                  ...        0 min,  0.011 sec
     gradient                   ...        0 min,  0.004 sec
 * total energy  :   -62.2186524 Eh     change       -0.4136433E-03 Eh
   gradient norm :     0.0117129 Eh/α   predicted    -0.3173094E-03 ( -23.29%)
   displ. norm   :     0.5719146 α      lambda       -0.6651831E-03
   maximum displ.:     0.4924013 α      in ANC's #2, #4, #7, ...

........................................................................
.............................. CYCLE   17 ..............................
........................................................................

 iter      E             dE          RMSdq      gap      omega  full diag
   1    -62.9403065 -0.629403E+02  0.198E-01    1.97       0.0  T
   2    -62.9403145 -0.796830E-05  0.117E-01    1.97       1.0  T
   3    -62.9403005  0.139519E-04  0.209E-02    1.97       1.0  T
   4    -62.9403180 -0.175284E-04  0.588E-03    1.97       3.0  T
   5    -62.9403184 -0.337031E-06  0.343E-03    1.97       5.2  T
   6    -62.9403185 -0.922580E-07  0.196E-03    1.97       9.0  T
   7    -62.9403185 -0.320849E-07  0.142E-03    1.97      12.4  T
   8    -62.9403185 -0.174677E-07  0.103E-03    1.97      17.2  T
   9    -62.9403185 -0.175056E-07  0.492E-04    1.97      35.9  T
  10    -62.9403185 -0.292909E-08  0.211E-04    1.97      83.9  T
     SCC iter.                  ...        0 min,  0.013 sec
     gradient                   ...        0 min,  0.004 sec
 * total energy  :   -62.2191829 Eh     change       -0.5305762E-03 Eh
   gradient norm :     0.0084485 Eh/α   predicted    -0.4413783E-03 ( -16.81%)
   displ. norm   :     0.6155568 α      lambda       -0.5923470E-03
   maximum displ.:     0.5383956 α      in ANC's #2, #4, #7, ...

........................................................................
.............................. CYCLE   18 ..............................
........................................................................

 iter      E             dE          RMSdq      gap      omega  full diag
   1    -62.9407871 -0.629408E+02  0.207E-01    1.97       0.0  T
   2    -62.9407936 -0.644994E-05  0.122E-01    1.97       1.0  T
   3    -62.9407838  0.982689E-05  0.187E-02    1.97       1.0  T
   4    -62.9407969 -0.131478E-04  0.534E-03    1.97       3.3  T
   5    -62.9407970 -0.120712E-06  0.244E-03    1.97       7.3  T
   6    -62.9407971 -0.765911E-07  0.109E-03    1.97      16.2  T
   7    -62.9407971 -0.116668E-07  0.736E-04    1.97      24.0  T
   8    -62.9407971 -0.439093E-08  0.494E-04    1.97      35.8  T
     SCC iter.                  ...        0 min,  0.011 sec
     gradient                   ...        0 min,  0.004 sec
 * total energy  :   -62.2196531 Eh     change       -0.4701900E-03 Eh
   gradient norm :     0.0079840 Eh/α   predicted    -0.4083995E-03 ( -13.14%)
   displ. norm   :     0.6238748 α      lambda       -0.5325491E-03
   maximum displ.:     0.5491728 α      in ANC's #2, #4, #7, ...

........................................................................
.............................. CYCLE   19 ..............................
........................................................................

 iter      E             dE          RMSdq      gap      omega  full diag
   1    -62.9367889 -0.629368E+02  0.214E-01    1.95       0.0  T
   2    -62.9368006 -0.116320E-04  0.126E-01    1.96       1.0  T
   3    -62.9367929  0.762921E-05  0.212E-02    1.96       1.0  T
   4    -62.9368041 -0.111309E-04  0.567E-03    1.96       3.1  T
   5    -62.9368043 -0.251532E-06  0.294E-03    1.96       6.0  T
   6    -62.9368044 -0.566043E-07  0.119E-03    1.96      14.9  T
   7    -62.9368044 -0.176000E-07  0.591E-04    1.96      29.9  T
   8    -62.9368044 -0.417629E-08  0.392E-04    1.96      45.1  T
     SCC iter.                  ...        0 min,  0.011 sec
     gradient                   ...        0 min,  0.004 sec
 * total energy  :   -62.2200303 Eh     change       -0.3772034E-03 Eh
   gradient norm :     0.0124941 Eh/α   predicted    -0.3699225E-03 (  -1.93%)
   displ. norm   :     0.6385117 α      lambda       -0.9544285E-03
   maximum displ.:     0.3534116 α      in ANC's #2, #3, #1, ...

........................................................................
.............................. CYCLE   20 ..............................
........................................................................

 iter      E             dE          RMSdq      gap      omega  full diag
   1    -62.9543284 -0.629543E+02  0.208E-01    1.94       0.0  T
   2    -62.9543607 -0.322617E-04  0.122E-01    1.94       1.0  T
   3    -62.9543484  0.122847E-04  0.255E-02    1.94       1.0  T
   4    -62.9543644 -0.160463E-04  0.103E-02    1.94       1.7  T
   5    -62.9543672 -0.277751E-05  0.534E-03    1.94       3.3  T
   6    -62.9543674 -0.170353E-06  0.364E-03    1.94       4.9  T
   7    -62.9543675 -0.128614E-06  0.237E-03    1.94       7.4  T
   8    -62.9543676 -0.557132E-07  0.165E-03    1.94      10.7  T
   9    -62.9543676 -0.381011E-07  0.833E-04    1.94      21.2  T
  10    -62.9543676 -0.818835E-08  0.417E-04    1.94      42.4  T
     SCC iter.                  ...        0 min,  0.013 sec
     gradient                   ...        0 min,  0.004 sec
 * total energy  :   -62.2194838 Eh     change        0.5465645E-03 Eh
   gradient norm :     0.0304055 Eh/α   predicted    -0.6717799E-03 (-222.91%)
   displ. norm   :     0.3066694 α      lambda       -0.1958481E-02
   maximum displ.:     0.2313999 α      in ANC's #2, #3, #1, ...
 * RMSD in coord.:     1.2450837 α      energy gain  -0.1487709E-01 Eh

generating ANC from exact Hessian ...
Using Lindh-Hessian (1995)
 Shifting diagonal of input Hessian by    9.5897597856539705E-003
 Lowest  eigenvalues of input Hessian
    0.000000    0.000000    0.000000    0.000000    0.000000    0.000000
    0.010000    0.010180    0.010720    0.011437    0.012232    0.013541
    0.015807    0.016551    0.020231    0.021833    0.023940    0.025012
 Highest eigenvalues
    1.962572    2.008393    2.118876    2.138409    2.237845    2.441232


........................................................................
.............................. CYCLE   21 ..............................
........................................................................

 iter      E             dE          RMSdq      gap      omega  full diag
   1    -62.9423818 -0.629424E+02  0.134E-01    1.96       0.0  T
   2    -62.9423988 -0.170180E-04  0.791E-02    1.96       1.0  T
   3    -62.9423938  0.505961E-05  0.228E-02    1.96       1.0  T
   4    -62.9424024 -0.863634E-05  0.637E-03    1.95       2.8  T
   5    -62.9424028 -0.389491E-06  0.360E-03    1.96       4.9  T
   6    -62.9424029 -0.883744E-07  0.219E-03    1.96       8.1  T
   7    -62.9424029 -0.335012E-07  0.141E-03    1.96      12.5  T
   8    -62.9424029 -0.190701E-07  0.106E-03    1.96      16.6  T
   9    -62.9424029 -0.137541E-07  0.624E-04    1.96      28.3  T
  10    -62.9424029 -0.637250E-08  0.296E-04    1.96      59.8  T
     SCC iter.                  ...        0 min,  0.013 sec
     gradient                   ...        0 min,  0.004 sec
 * total energy  :   -62.2205287 Eh     change       -0.1044954E-02 Eh
   gradient norm :     0.0133193 Eh/α   predicted     0.0000000E+00 (-100.00%)
   displ. norm   :     0.1105296 α      lambda       -0.4246753E-03
   maximum displ.:     0.0677292 α      in ANC's #2, #6, #5, ...

........................................................................
.............................. CYCLE   22 ..............................
........................................................................

 iter      E             dE          RMSdq      gap      omega  full diag
   1    -62.9433748 -0.629434E+02  0.485E-02    1.95       0.0  T
   2    -62.9433773 -0.251361E-05  0.283E-02    1.96       1.0  T
   3    -62.9433766  0.722087E-06  0.673E-03    1.96       2.6  T
   4    -62.9433776 -0.105236E-05  0.225E-03    1.96       7.9  T
   5    -62.9433778 -0.116586E-06  0.110E-03    1.96      16.1  T
   6    -62.9433778 -0.133394E-07  0.627E-04    1.96      28.2  T
   7    -62.9433778 -0.353850E-08  0.328E-04    1.96      53.9  T
     SCC iter.                  ...        0 min,  0.009 sec
     gradient                   ...        0 min,  0.004 sec
 * total energy  :   -62.2208423 Eh     change       -0.3136213E-03 Eh
   gradient norm :     0.0045056 Eh/α   predicted    -0.2149345E-03 ( -31.47%)
   displ. norm   :     0.2014959 α      lambda       -0.3248963E-03
   maximum displ.:     0.1349721 α      in ANC's #2, #6, #5, ...

........................................................................
.............................. CYCLE   23 ..............................
........................................................................

 iter      E             dE          RMSdq      gap      omega  full diag
   1    -62.9440056 -0.629440E+02  0.733E-02    1.96       0.0  T
   2    -62.9440084 -0.282015E-05  0.422E-02    1.96       1.0  T
   3    -62.9440080  0.387675E-06  0.696E-03    1.96       2.5  T
   4    -62.9440091 -0.105655E-05  0.271E-03    1.96       6.5  T
   5    -62.9440092 -0.881227E-07  0.123E-03    1.96      14.4  T
   6    -62.9440092 -0.893922E-08  0.602E-04    1.96      29.4  T
   7    -62.9440092 -0.286600E-08  0.417E-04    1.96      42.4  T
     SCC iter.                  ...        0 min,  0.009 sec
     gradient                   ...        0 min,  0.004 sec
 * total energy  :   -62.2210756 Eh     change       -0.2332567E-03 Eh
   gradient norm :     0.0047835 Eh/α   predicted    -0.1690640E-03 ( -27.52%)
   displ. norm   :     0.2275586 α      lambda       -0.2186822E-03
   maximum displ.:     0.1592482 α      in ANC's #2, #6, #5, ...

........................................................................
.............................. CYCLE   24 ..............................
........................................................................

 iter      E             dE          RMSdq      gap      omega  full diag
   1    -62.9438126 -0.629438E+02  0.790E-02    1.96       0.0  T
   2    -62.9438156 -0.292742E-05  0.454E-02    1.96       1.0  T
   3    -62.9438145  0.105854E-05  0.872E-03    1.96       2.0  T
   4    -62.9438164 -0.191293E-05  0.285E-03    1.96       6.2  T
   5    -62.9438165 -0.695546E-07  0.121E-03    1.96      14.6  T
   6    -62.9438165 -0.126262E-07  0.666E-04    1.96      26.5  T
   7    -62.9438165 -0.629414E-08  0.425E-04    1.96      41.6  T
     SCC iter.                  ...        0 min,  0.009 sec
     gradient                   ...        0 min,  0.004 sec
 * total energy  :   -62.2212551 Eh     change       -0.1795463E-03 Eh
   gradient norm :     0.0062243 Eh/α   predicted    -0.1150039E-03 ( -35.95%)
   displ. norm   :     0.2620492 α      lambda       -0.2279887E-03
   maximum displ.:     0.1879170 α      in ANC's #2, #6, #5, ...

........................................................................
.............................. CYCLE   25 ..............................
........................................................................

 iter      E             dE          RMSdq      gap      omega  full diag
   1    -62.9434176 -0.629434E+02  0.918E-02    1.97       0.0  T
   2    -62.9434216 -0.402220E-05  0.528E-02    1.96       1.0  T
   3    -62.9434187  0.293494E-05  0.120E-02    1.96       1.5  T
   4    -62.9434230 -0.427631E-05  0.330E-03    1.96       5.4  T
   5    -62.9434231 -0.816508E-07  0.146E-03    1.96      12.1  T
   6    -62.9434231 -0.283130E-07  0.749E-04    1.96      23.6  T
   7    -62.9434231 -0.727953E-08  0.468E-04    1.96      37.8  T
     SCC iter.                  ...        0 min,  0.009 sec
     gradient                   ...        0 min,  0.004 sec
 * total energy  :   -62.2214463 Eh     change       -0.1911217E-03 Eh
   gradient norm :     0.0051408 Eh/α   predicted    -0.1219092E-03 ( -36.21%)
   displ. norm   :     0.2596777 α      lambda       -0.2084108E-03
   maximum displ.:     0.1958971 α      in ANC's #2, #6, #3, ...

........................................................................
.............................. CYCLE   26 ..............................
........................................................................

 iter      E             dE          RMSdq      gap      omega  full diag
   1    -62.9434394 -0.629434E+02  0.925E-02    1.97       0.0  T
   2    -62.9434432 -0.379774E-05  0.533E-02    1.97       1.0  T
   3    -62.9434391  0.407532E-05  0.130E-02    1.97       1.4  T
   4    -62.9434446 -0.551110E-05  0.321E-03    1.97       5.5  T
   5    -62.9434447 -0.713520E-07  0.142E-03    1.97      12.4  T
   6    -62.9434447 -0.307832E-07  0.673E-04    1.97      26.3  T
   7    -62.9434447 -0.596769E-08  0.408E-04    1.97      43.4  T
     SCC iter.                  ...        0 min,  0.009 sec
     gradient                   ...        0 min,  0.004 sec
 * total energy  :   -62.2216217 Eh     change       -0.1754551E-03 Eh
   gradient norm :     0.0040453 Eh/α   predicted    -0.1112325E-03 ( -36.60%)
   displ. norm   :     0.2387863 α      lambda       -0.1846480E-03
   maximum displ.:     0.1888852 α      in ANC's #2, #3, #6, ...

........................................................................
.............................. CYCLE   27 ..............................
........................................................................

 iter      E             dE          RMSdq      gap      omega  full diag
   1    -62.9439446 -0.629439E+02  0.855E-02    1.97       0.0  T
   2    -62.9439474 -0.283419E-05  0.493E-02    1.97       1.0  T
   3    -62.9439437  0.374517E-05  0.120E-02    1.97       1.5  T
   4    -62.9439486 -0.492775E-05  0.281E-03    1.97       6.3  T
   5    -62.9439487 -0.464825E-07  0.121E-03    1.97      14.6  T
   6    -62.9439487 -0.257358E-07  0.505E-04    1.97      35.0  T
   7    -62.9439487 -0.380698E-08  0.274E-04    1.97      64.4  T
     SCC iter.                  ...        0 min,  0.009 sec
     gradient                   ...        0 min,  0.004 sec
 * total energy  :   -62.2217843 Eh     change       -0.1625413E-03 Eh
   gradient norm :     0.0042065 Eh/α   predicted    -0.9758850E-04 ( -39.96%)
   displ. norm   :     0.2549824 α      lambda       -0.2018347E-03
   maximum displ.:     0.2041798 α      in ANC's #2, #3, #4, ...

........................................................................
.............................. CYCLE   28 ..............................
........................................................................

 iter      E             dE          RMSdq      gap      omega  full diag
   1    -62.9445437 -0.629445E+02  0.903E-02    1.97       0.0  T
   2    -62.9445463 -0.263741E-05  0.523E-02    1.97       1.0  T
   3    -62.9445427  0.360381E-05  0.117E-02    1.97       1.5  T
   4    -62.9445475 -0.473519E-05  0.279E-03    1.97       6.3  T
   5    -62.9445475 -0.395823E-07  0.119E-03    1.97      14.9  T
   6    -62.9445475 -0.289455E-07  0.443E-04    1.97      39.9  T
   7    -62.9445475 -0.314013E-08  0.218E-04    1.97      81.0  T
     SCC iter.                  ...        0 min,  0.009 sec
     gradient                   ...        0 min,  0.004 sec
 * total energy  :   -62.2219668 Eh     change       -0.1825212E-03 Eh
   gradient norm :     0.0045865 Eh/α   predicted    -0.1074946E-03 ( -41.11%)
   displ. norm   :     0.3137773 α      lambda       -0.2449471E-03
   maximum displ.:     0.2501740 α      in ANC's #2, #3, #4, ...

........................................................................
.............................. CYCLE   29 ..............................
........................................................................

 iter      E             dE          RMSdq      gap      omega  full diag
   1    -62.9446783 -0.629447E+02  0.109E-01    1.97       0.0  T
   2    -62.9446816 -0.333367E-05  0.631E-02    1.97       1.0  T
   3    -62.9446779  0.375833E-05  0.124E-02    1.97       1.4  T
   4    -62.9446830 -0.511712E-05  0.322E-03    1.97       5.5  T
   5    -62.9446830 -0.501267E-07  0.137E-03    1.97      12.9  T
   6    -62.9446831 -0.392862E-07  0.526E-04    1.97      33.6  T
   7    -62.9446831 -0.466439E-08  0.268E-04    1.97      66.0  T
     SCC iter.                  ...        0 min,  0.011 sec
     gradient                   ...        0 min,  0.004 sec
 * total energy  :   -62.2221884 Eh     change       -0.2216208E-03 Eh
   gradient norm :     0.0047483 Eh/α   predicted    -0.1345339E-03 ( -39.30%)
   displ. norm   :     0.3708876 α      lambda       -0.2752081E-03
   maximum displ.:     0.2960430 α      in ANC's #2, #3, #4, ...

........................................................................
.............................. CYCLE   30 ..............................
........................................................................

 iter      E             dE          RMSdq      gap      omega  full diag
   1    -62.9443307 -0.629443E+02  0.126E-01    1.97       0.0  T
   2    -62.9443347 -0.397304E-05  0.733E-02    1.97       1.0  T
   3    -62.9443308  0.388833E-05  0.131E-02    1.97       1.3  T
   4    -62.9443363 -0.545876E-05  0.357E-03    1.97       4.9  T
   5    -62.9443363 -0.613646E-07  0.150E-03    1.97      11.7  T
   6    -62.9443364 -0.421672E-07  0.631E-04    1.97      28.0  T
   7    -62.9443364 -0.755072E-08  0.314E-04    1.97      56.4  T
     SCC iter.                  ...        0 min,  0.009 sec
     gradient                   ...        0 min,  0.005 sec
 * total energy  :   -62.2224345 Eh     change       -0.2460827E-03 Eh
   gradient norm :     0.0048795 Eh/α   predicted    -0.1565345E-03 ( -36.39%)
   displ. norm   :     0.4110370 α      lambda       -0.2898802E-03
   maximum displ.:     0.3331071 α      in ANC's #2, #3, #4, ...

........................................................................
.............................. CYCLE   31 ..............................
........................................................................

 iter      E             dE          RMSdq      gap      omega  full diag
   1    -62.9439511 -0.629440E+02  0.136E-01    1.98       0.0  T
   2    -62.9439555 -0.441378E-05  0.797E-02    1.98       1.0  T
   3    -62.9439514  0.409338E-05  0.139E-02    1.98       1.3  T
   4    -62.9439572 -0.581535E-05  0.376E-03    1.98       4.7  T
   5    -62.9439573 -0.660674E-07  0.159E-03    1.98      11.1  T
   6    -62.9439573 -0.393534E-07  0.715E-04    1.98      24.7  T
   7    -62.9439574 -0.107591E-07  0.332E-04    1.98      53.3  T
     SCC iter.                  ...        0 min,  0.025 sec
     gradient                   ...        0 min,  0.004 sec
 * total energy  :   -62.2226903 Eh     change       -0.2558277E-03 Eh
   gradient norm :     0.0050311 Eh/α   predicted    -0.1694297E-03 ( -33.77%)
   displ. norm   :     0.4715622 α      lambda       -0.3193551E-03
   maximum displ.:     0.3899153 α      in ANC's #2, #3, #4, ...

........................................................................
.............................. CYCLE   32 ..............................
........................................................................

 iter      E             dE          RMSdq      gap      omega  full diag
   1    -62.9435333 -0.629435E+02  0.154E-01    1.98       0.0  T
   2    -62.9435388 -0.551045E-05  0.901E-02    1.98       1.0  T
   3    -62.9435333  0.545232E-05  0.160E-02    1.98       1.1  T
   4    -62.9435409 -0.757672E-05  0.418E-03    1.98       4.2  T
   5    -62.9435410 -0.882639E-07  0.183E-03    1.98       9.6  T
   6    -62.9435410 -0.418957E-07  0.854E-04    1.98      20.7  T
   7    -62.9435410 -0.153881E-07  0.378E-04    1.98      46.7  T
     SCC iter.                  ...        0 min,  0.009 sec
     gradient                   ...        0 min,  0.004 sec
 * total energy  :   -62.2229669 Eh     change       -0.2765329E-03 Eh
   gradient norm :     0.0053087 Eh/α   predicted    -0.1951910E-03 ( -29.41%)
   displ. norm   :     0.5976908 α      lambda       -0.3969885E-03
   maximum displ.:     0.5086953 α      in ANC's #2, #3, #7, ...

........................................................................
.............................. CYCLE   33 ..............................
........................................................................

 iter      E             dE          RMSdq      gap      omega  full diag
   1    -62.9430884 -0.629431E+02  0.190E-01    1.99       0.0  T
   2    -62.9430971 -0.879712E-05  0.111E-01    1.99       1.0  T
   3    -62.9430881  0.909380E-05  0.206E-02    1.99       1.0  T
   4    -62.9431004 -0.123672E-04  0.514E-03    1.99       3.4  T
   5    -62.9431006 -0.148976E-06  0.236E-03    1.99       7.5  T
   6    -62.9431006 -0.578584E-07  0.113E-03    1.99      15.6  T
   7    -62.9431007 -0.265590E-07  0.497E-04    1.99      35.6  T
   8    -62.9431007 -0.148276E-08  0.342E-04    1.99      51.7  T
     SCC iter.                  ...        0 min,  0.011 sec
     gradient                   ...        0 min,  0.004 sec
 * total energy  :   -62.2232927 Eh     change       -0.3258524E-03 Eh
   gradient norm :     0.0064909 Eh/α   predicted    -0.2694040E-03 ( -17.32%)
   displ. norm   :     0.5724118 α      lambda       -0.4183110E-03
   maximum displ.:     0.4985872 α      in ANC's #2, #3, #7, ...

........................................................................
.............................. CYCLE   34 ..............................
........................................................................

 iter      E             dE          RMSdq      gap      omega  full diag
   1    -62.9448539 -0.629449E+02  0.178E-01    2.00       0.0  T
   2    -62.9448614 -0.746745E-05  0.105E-01    2.00       1.0  T
   3    -62.9448509  0.104543E-04  0.211E-02    2.00       1.0  T
   4    -62.9448643 -0.133567E-04  0.469E-03    2.00       3.8  T
   5    -62.9448644 -0.142556E-06  0.235E-03    2.00       7.5  T
   6    -62.9448645 -0.539013E-07  0.111E-03    2.00      15.9  T
   7    -62.9448645 -0.197548E-07  0.529E-04    2.00      33.4  T
   8    -62.9448645 -0.190638E-08  0.374E-04    2.00      47.3  T
     SCC iter.                  ...        0 min,  0.011 sec
     gradient                   ...        0 min,  0.004 sec
 * total energy  :   -62.2236275 Eh     change       -0.3348287E-03 Eh
   gradient norm :     0.0065796 Eh/α   predicted    -0.2776956E-03 ( -17.06%)
   displ. norm   :     0.6118242 α      lambda       -0.4303362E-03
   maximum displ.:     0.5340201 α      in ANC's #2, #3, #1, ...

........................................................................
.............................. CYCLE   35 ..............................
........................................................................

 iter      E             dE          RMSdq      gap      omega  full diag
   1    -62.9441297 -0.629441E+02  0.184E-01    2.01       0.0  T
   2    -62.9441407 -0.110287E-04  0.108E-01    2.00       1.0  T
   3    -62.9441288  0.119234E-04  0.223E-02    2.00       1.0  T
   4    -62.9441442 -0.154680E-04  0.537E-03    2.00       3.3  T
   5    -62.9441445 -0.255097E-06  0.266E-03    2.00       6.6  T
   6    -62.9441446 -0.651812E-07  0.141E-03    2.00      12.6  T
   7    -62.9441446 -0.316425E-07  0.664E-04    2.00      26.6  T
   8    -62.9441446 -0.297865E-08  0.494E-04    2.00      35.8  T
     SCC iter.                  ...        0 min,  0.011 sec
     gradient                   ...        0 min,  0.004 sec
 * total energy  :   -62.2239569 Eh     change       -0.3293284E-03 Eh
   gradient norm :     0.0088144 Eh/α   predicted    -0.2957133E-03 ( -10.21%)
   displ. norm   :     0.5142236 α      lambda       -0.6134302E-03
   maximum displ.:     0.4236487 α      in ANC's #2, #8, #5, ...

........................................................................
.............................. CYCLE   36 ..............................
........................................................................

 iter      E             dE          RMSdq      gap      omega  full diag
   1    -62.9538858 -0.629539E+02  0.157E-01    2.03       0.0  T
   2    -62.9538957 -0.989037E-05  0.934E-02    2.02       1.0  T
   3    -62.9538762  0.194697E-04  0.264E-02    2.03       1.0  T
   4    -62.9538993 -0.231065E-04  0.494E-03    2.02       3.6  T
   5    -62.9538997 -0.358651E-06  0.267E-03    2.02       6.6  T
   6    -62.9538998 -0.507207E-07  0.164E-03    2.02      10.8  T
   7    -62.9538998 -0.245207E-07  0.977E-04    2.02      18.1  T
   8    -62.9538998 -0.789791E-08  0.702E-04    2.02      25.2  T
     SCC iter.                  ...        0 min,  0.011 sec
     gradient                   ...        0 min,  0.004 sec
 * total energy  :   -62.2242333 Eh     change       -0.2764181E-03 Eh
   gradient norm :     0.0118251 Eh/α   predicted    -0.3878217E-03 (  40.30%)
   displ. norm   :     0.6729329 α      lambda       -0.7652447E-03
   maximum displ.:     0.5778130 α      in ANC's #2, #3, #6, ...

........................................................................
.............................. CYCLE   37 ..............................
........................................................................

 iter      E             dE          RMSdq      gap      omega  full diag
   1    -62.9439089 -0.629439E+02  0.222E-01    2.02       0.0  T
   2    -62.9439233 -0.144942E-04  0.131E-01    2.02       1.0  T
   3    -62.9439097  0.136589E-04  0.240E-02    2.02       1.0  T
   4    -62.9439273 -0.176136E-04  0.654E-03    2.02       2.7  T
   5    -62.9439279 -0.554932E-06  0.339E-03    2.02       5.2  T
   6    -62.9439280 -0.108278E-06  0.169E-03    2.02      10.5  T
   7    -62.9439280 -0.405186E-07  0.915E-04    2.02      19.3  T
   8    -62.9439280 -0.568922E-08  0.656E-04    2.02      26.9  T
     SCC iter.                  ...        0 min,  0.011 sec
     gradient                   ...        0 min,  0.004 sec
 * total energy  :   -62.2245563 Eh     change       -0.3230575E-03 Eh
   gradient norm :     0.0147051 Eh/α   predicted    -0.5558929E-03 (  72.07%)
   displ. norm   :     0.1737315 α      lambda       -0.4692769E-03
   maximum displ.:     0.1352734 α      in ANC's #2, #1, #8, ...

........................................................................
.............................. CYCLE   38 ..............................
........................................................................

 iter      E             dE          RMSdq      gap      omega  full diag
   1    -62.9447845 -0.629448E+02  0.569E-02    2.02       0.0  T
   2    -62.9447876 -0.308687E-05  0.335E-02    2.01       1.0  T
   3    -62.9447846  0.298125E-05  0.129E-02    2.01       1.4  T
   4    -62.9447886 -0.404242E-05  0.223E-03    2.01       7.9  T
   5    -62.9447887 -0.391065E-07  0.121E-03    2.01      14.7  T
   6    -62.9447887 -0.639474E-08  0.697E-04    2.01      25.4  T
   7    -62.9447887 -0.387957E-08  0.409E-04    2.01      43.2  T
     SCC iter.                  ...        0 min,  0.009 sec
     gradient                   ...        0 min,  0.004 sec
 * total energy  :   -62.2248598 Eh     change       -0.3034745E-03 Eh
   gradient norm :     0.0080009 Eh/α   predicted    -0.2417243E-03 ( -20.35%)
   displ. norm   :     0.4075950 α      lambda       -0.4110396E-03
   maximum displ.:     0.3311974 α      in ANC's #2, #5, #8, ...

........................................................................
.............................. CYCLE   39 ..............................
........................................................................

 iter      E             dE          RMSdq      gap      omega  full diag
   1    -62.9463374 -0.629463E+02  0.124E-01    2.02       0.0  T
   2    -62.9463430 -0.555449E-05  0.734E-02    2.02       1.0  T
   3    -62.9463387  0.430485E-05  0.142E-02    2.03       1.2  T
   4    -62.9463442 -0.552430E-05  0.352E-03    2.02       5.0  T
   5    -62.9463444 -0.166432E-06  0.192E-03    2.02       9.2  T
   6    -62.9463444 -0.113575E-07  0.117E-03    2.02      15.1  T
   7    -62.9463444 -0.206908E-07  0.665E-04    2.02      26.6  T
   8    -62.9463444 -0.377342E-08  0.462E-04    2.02      38.3  T
     SCC iter.                  ...        0 min,  0.012 sec
     gradient                   ...        0 min,  0.004 sec
 * total energy  :   -62.2251348 Eh     change       -0.2749564E-03 Eh
   gradient norm :     0.0103885 Eh/α   predicted    -0.2396639E-03 ( -12.84%)
   displ. norm   :     0.4091206 α      lambda       -0.7360633E-03
   maximum displ.:     0.2088218 α      in ANC's #4, #6, #2, ...

........................................................................
.............................. CYCLE   40 ..............................
........................................................................

 iter      E             dE          RMSdq      gap      omega  full diag
   1    -62.9533063 -0.629533E+02  0.134E-01    2.02       0.0  T
   2    -62.9533164 -0.101220E-04  0.799E-02    2.02       1.0  T
   3    -62.9533108  0.562699E-05  0.179E-02    2.02       1.0  T
   4    -62.9533187 -0.788252E-05  0.470E-03    2.02       3.8  T
   5    -62.9533189 -0.243815E-06  0.278E-03    2.02       6.4  T
   6    -62.9533190 -0.360566E-07  0.169E-03    2.02      10.5  T
   7    -62.9533190 -0.211155E-07  0.102E-03    2.02      17.4  T
   8    -62.9533190 -0.993121E-08  0.729E-04    2.02      24.3  T
   9    -62.9533190 -0.511663E-08  0.447E-04    2.02      39.5  T
     SCC iter.                  ...        0 min,  0.012 sec
     gradient                   ...        0 min,  0.004 sec
 * total energy  :   -62.2253233 Eh     change       -0.1885242E-03 Eh
   gradient norm :     0.0120668 Eh/α   predicted    -0.4296352E-03 ( 127.89%)
   displ. norm   :     0.6267158 α      lambda       -0.7324269E-03
   maximum displ.:     0.5283934 α      in ANC's #2, #3, #6, ...

........................................................................
.............................. CYCLE   41 ..............................
........................................................................

 iter      E             dE          RMSdq      gap      omega  full diag
   1    -62.9437193 -0.629437E+02  0.193E-01    2.02       0.0  T
   2    -62.9437279 -0.857692E-05  0.114E-01    2.02       1.0  T
   3    -62.9437242  0.366458E-05  0.152E-02    2.02       1.2  T
   4    -62.9437305 -0.624862E-05  0.535E-03    2.02       3.3  T
   5    -62.9437307 -0.200372E-06  0.300E-03    2.02       5.9  T
   6    -62.9437308 -0.902475E-07  0.142E-03    2.02      12.4  T
   7    -62.9437308 -0.192138E-07  0.942E-04    2.02      18.8  T
   8    -62.9437308 -0.699796E-08  0.670E-04    2.02      26.4  T
     SCC iter.                  ...        0 min,  0.011 sec
     gradient                   ...        0 min,  0.004 sec
 * total energy  :   -62.2255971 Eh     change       -0.2737716E-03 Eh
   gradient norm :     0.0119664 Eh/α   predicted    -0.5100541E-03 (  86.31%)
   displ. norm   :     0.1030651 α      lambda       -0.3131165E-03
   maximum displ.:     0.0816263 α      in ANC's #6, #2, #17, ...

........................................................................
.............................. CYCLE   42 ..............................
........................................................................

 iter      E             dE          RMSdq      gap      omega  full diag
   1    -62.9468718 -0.629469E+02  0.500E-02    2.02       0.0  T
   2    -62.9468750 -0.320230E-05  0.301E-02    2.02       1.0  T
   3    -62.9468729  0.213024E-05  0.102E-02    2.02       1.7  T
   4    -62.9468758 -0.286905E-05  0.257E-03    2.02       6.9  T
   5    -62.9468759 -0.166141E-06  0.132E-03    2.02      13.4  T
   6    -62.9468759 -0.160179E-07  0.812E-04    2.02      21.8  T
   7    -62.9468759 -0.503273E-08  0.516E-04    2.02      34.2  T
     SCC iter.                  ...        0 min,  0.009 sec
     gradient                   ...        0 min,  0.004 sec
 * total energy  :   -62.2257509 Eh     change       -0.1537999E-03 Eh
   gradient norm :     0.0062360 Eh/α   predicted    -0.1582262E-03 (   2.88%)
   displ. norm   :     0.2860100 α      lambda       -0.2220707E-03
   maximum displ.:     0.2062454 α      in ANC's #2, #4, #56, ...
 * RMSD in coord.:     1.2607784 α      energy gain  -0.6267093E-02 Eh

generating ANC from exact Hessian ...
Using Lindh-Hessian (1995)
 Shifting diagonal of input Hessian by    9.5305694456657812E-003
 Lowest  eigenvalues of input Hessian
    0.000000    0.000000    0.000000    0.000000    0.000000    0.000000
    0.010000    0.010195    0.010812    0.011049    0.012337    0.013976
    0.015929    0.016289    0.020243    0.021442    0.024474    0.025218
 Highest eigenvalues
    1.970829    2.016469    2.130992    2.146552    2.243119    2.423634


........................................................................
.............................. CYCLE   43 ..............................
........................................................................

 iter      E             dE          RMSdq      gap      omega  full diag
   1    -62.9495702 -0.629496E+02  0.845E-02    2.02       0.0  T
   2    -62.9495721 -0.183952E-05  0.500E-02    2.02       1.0  T
   3    -62.9495708  0.125726E-05  0.729E-03    2.02       2.4  T
   4    -62.9495725 -0.165650E-05  0.232E-03    2.02       7.6  T
   5    -62.9495725 -0.857614E-07  0.126E-03    2.02      14.0  T
   6    -62.9495726 -0.665292E-08  0.707E-04    2.02      25.0  T
   7    -62.9495726 -0.406008E-08  0.411E-04    2.02      43.0  T
     SCC iter.                  ...        0 min,  0.009 sec
     gradient                   ...        0 min,  0.004 sec
 * total energy  :   -62.2258980 Eh     change       -0.1471685E-03 Eh
   gradient norm :     0.0058654 Eh/α   predicted     0.0000000E+00 (-100.00%)
   displ. norm   :     0.0819790 α      lambda       -0.1443024E-03
   maximum displ.:     0.0491343 α      in ANC's #4, #2, #13, ...

........................................................................
.............................. CYCLE   44 ..............................
........................................................................

 iter      E             dE          RMSdq      gap      omega  full diag
   1    -62.9491512 -0.629492E+02  0.404E-02    2.02       0.0  T
   2    -62.9491517 -0.460274E-06  0.240E-02    2.02       1.0  T
   3    -62.9491512  0.501186E-06  0.429E-03    2.02       4.1  T
   4    -62.9491518 -0.604037E-06  0.117E-03    2.02      15.1  T
   5    -62.9491518 -0.283247E-07  0.624E-04    2.02      28.3  T
   6    -62.9491518 -0.298010E-08  0.349E-04    2.02      50.6  T
     SCC iter.                  ...        0 min,  0.008 sec
     gradient                   ...        0 min,  0.004 sec
 * total energy  :   -62.2260171 Eh     change       -0.1191056E-03 Eh
   gradient norm :     0.0023758 Eh/α   predicted    -0.7435073E-04 ( -37.58%)
   displ. norm   :     0.2140516 α      lambda       -0.2311075E-03
   maximum displ.:     0.1307565 α      in ANC's #4, #2, #8, ...

........................................................................
.............................. CYCLE   45 ..............................
........................................................................

 iter      E             dE          RMSdq      gap      omega  full diag
   1    -62.9484017 -0.629484E+02  0.926E-02    2.01       0.0  T
   2    -62.9484031 -0.135521E-05  0.550E-02    2.01       1.0  T
   3    -62.9484020  0.104547E-05  0.698E-03    2.01       2.5  T
   4    -62.9484035 -0.147624E-05  0.251E-03    2.01       7.0  T
   5    -62.9484036 -0.776307E-07  0.129E-03    2.01      13.7  T
   6    -62.9484036 -0.132647E-07  0.637E-04    2.01      27.8  T
   7    -62.9484036 -0.346846E-08  0.434E-04    2.01      40.8  T
     SCC iter.                  ...        0 min,  0.009 sec
     gradient                   ...        0 min,  0.004 sec
 * total energy  :   -62.2261838 Eh     change       -0.1667092E-03 Eh
   gradient norm :     0.0040910 Eh/α   predicted    -0.1208566E-03 ( -27.50%)
   displ. norm   :     0.2216108 α      lambda       -0.1542044E-03
   maximum displ.:     0.1357416 α      in ANC's #4, #2, #8, ...

........................................................................
.............................. CYCLE   46 ..............................
........................................................................

 iter      E             dE          RMSdq      gap      omega  full diag
   1    -62.9479017 -0.629479E+02  0.874E-02    2.01       0.0  T
   2    -62.9479026 -0.881308E-06  0.519E-02    2.01       1.0  T
   3    -62.9479027 -0.137227E-06  0.396E-03    2.01       4.5  T
   4    -62.9479029 -0.195242E-06  0.213E-03    2.01       8.3  T
   5    -62.9479029 -0.288990E-07  0.912E-04    2.01      19.4  T
   6    -62.9479029 -0.778184E-08  0.525E-04    2.01      33.6  T
     SCC iter.                  ...        0 min,  0.009 sec
     gradient                   ...        0 min,  0.004 sec
 * total energy  :   -62.2263080 Eh     change       -0.1241453E-03 Eh
   gradient norm :     0.0056332 Eh/α   predicted    -0.8088974E-04 ( -34.84%)
   displ. norm   :     0.2550814 α      lambda       -0.1661400E-03
   maximum displ.:     0.1545607 α      in ANC's #4, #2, #8, ...

........................................................................
.............................. CYCLE   47 ..............................
........................................................................

 iter      E             dE          RMSdq      gap      omega  full diag
   1    -62.9479123 -0.629479E+02  0.921E-02    2.01       0.0  T
   2    -62.9479135 -0.120765E-05  0.548E-02    2.01       1.0  T
   3    -62.9479135  0.461777E-07  0.501E-03    2.00       3.5  T
   4    -62.9479140 -0.487441E-06  0.233E-03    2.01       7.6  T
   5    -62.9479140 -0.195646E-07  0.114E-03    2.01      15.5  T
   6    -62.9479140 -0.190349E-07  0.606E-04    2.01      29.1  T
   7    -62.9479140 -0.312625E-08  0.392E-04    2.01      45.1  T
     SCC iter.                  ...        0 min,  0.010 sec
     gradient                   ...        0 min,  0.004 sec
 * total energy  :   -62.2264379 Eh     change       -0.1298961E-03 Eh
   gradient norm :     0.0052040 Eh/α   predicted    -0.8847602E-04 ( -31.89%)
   displ. norm   :     0.2633643 α      lambda       -0.1550147E-03
   maximum displ.:     0.1606199 α      in ANC's #4, #2, #8, ...

........................................................................
.............................. CYCLE   48 ..............................
........................................................................

 iter      E             dE          RMSdq      gap      omega  full diag
   1    -62.9485140 -0.629485E+02  0.877E-02    2.00       0.0  T
   2    -62.9485154 -0.139500E-05  0.523E-02    2.00       1.0  T
   3    -62.9485148  0.559123E-06  0.619E-03    2.00       2.9  T
   4    -62.9485158 -0.102142E-05  0.236E-03    2.00       7.5  T
   5    -62.9485159 -0.354965E-07  0.139E-03    2.00      12.7  T
   6    -62.9485159 -0.248585E-07  0.655E-04    2.00      27.0  T
   7    -62.9485159 -0.432615E-08  0.394E-04    2.00      44.8  T
     SCC iter.                  ...        0 min,  0.009 sec
     gradient                   ...        0 min,  0.004 sec
 * total energy  :   -62.2265500 Eh     change       -0.1121070E-03 Eh
   gradient norm :     0.0045154 Eh/α   predicted    -0.8289149E-04 ( -26.06%)
   displ. norm   :     0.2087720 α      lambda       -0.1131157E-03
   maximum displ.:     0.1327423 α      in ANC's #2, #4, #1, ...

........................................................................
.............................. CYCLE   49 ..............................
........................................................................

 iter      E             dE          RMSdq      gap      omega  full diag
   1    -62.9495938 -0.629496E+02  0.645E-02    2.00       0.0  T
   2    -62.9495948 -0.102599E-05  0.384E-02    2.00       1.0  T
   3    -62.9495944  0.373751E-06  0.515E-03    2.00       3.4  T
   4    -62.9495951 -0.669661E-06  0.193E-03    2.00       9.2  T
   5    -62.9495951 -0.354253E-07  0.116E-03    2.00      15.3  T
   6    -62.9495951 -0.994977E-08  0.574E-04    2.00      30.8  T
   7    -62.9495951 -0.457762E-08  0.301E-04    2.00      58.8  T
     SCC iter.                  ...        0 min,  0.010 sec
     gradient                   ...        0 min,  0.008 sec
 * total energy  :   -62.2266341 Eh     change       -0.8411534E-04 Eh
   gradient norm :     0.0038453 Eh/α   predicted    -0.5902770E-04 ( -29.83%)
   displ. norm   :     0.2393231 α      lambda       -0.9924229E-04
   maximum displ.:     0.1616557 α      in ANC's #2, #4, #1, ...

........................................................................
.............................. CYCLE   50 ..............................
........................................................................

 iter      E             dE          RMSdq      gap      omega  full diag
   1    -62.9496009 -0.629496E+02  0.728E-02    1.99       0.0  T
   2    -62.9496019 -0.100715E-05  0.434E-02    1.99       1.0  T
   3    -62.9496017  0.292901E-06  0.553E-03    1.99       3.2  T
   4    -62.9496023 -0.688097E-06  0.199E-03    1.99       8.9  T
   5    -62.9496023 -0.103062E-07  0.109E-03    1.99      16.2  T
   6    -62.9496024 -0.100972E-07  0.433E-04    1.99      40.8  T
   7    -62.9496024 -0.157286E-08  0.253E-04    1.99      70.0  T
     SCC iter.                  ...        0 min,  0.011 sec
     gradient                   ...        0 min,  0.004 sec
 * total energy  :   -62.2267094 Eh     change       -0.7533894E-04 Eh
   gradient norm :     0.0036293 Eh/α   predicted    -0.5246479E-04 ( -30.36%)
   displ. norm   :     0.2084805 α      lambda       -0.9139635E-04
   maximum displ.:     0.1513165 α      in ANC's #2, #4, #7, ...

........................................................................
.............................. CYCLE   51 ..............................
........................................................................

 iter      E             dE          RMSdq      gap      omega  full diag
   1    -62.9503210 -0.629503E+02  0.605E-02    1.98       0.0  T
   2    -62.9503219 -0.829921E-06  0.360E-02    1.98       1.0  T
   3    -62.9503216  0.236870E-06  0.497E-03    1.98       3.6  T
   4    -62.9503222 -0.559527E-06  0.190E-03    1.98       9.3  T
   5    -62.9503222 -0.151566E-07  0.988E-04    1.98      17.9  T
   6    -62.9503222 -0.738884E-08  0.361E-04    1.98      49.0  T
     SCC iter.                  ...        0 min,  0.008 sec
     gradient                   ...        0 min,  0.004 sec
 * total energy  :   -62.2267722 Eh     change       -0.6271471E-04 Eh
   gradient norm :     0.0031191 Eh/α   predicted    -0.4768598E-04 ( -23.96%)
   displ. norm   :     0.3441561 α      lambda       -0.8119566E-04
   maximum displ.:     0.2576419 α      in ANC's #2, #4, #1, ...

........................................................................
.............................. CYCLE   52 ..............................
........................................................................

 iter      E             dE          RMSdq      gap      omega  full diag
   1    -62.9475102 -0.629475E+02  0.991E-02    1.97       0.0  T
   2    -62.9475121 -0.189733E-05  0.590E-02    1.97       1.0  T
   3    -62.9475107  0.140652E-05  0.896E-03    1.97       2.0  T
   4    -62.9475129 -0.217031E-05  0.262E-03    1.97       6.7  T
   5    -62.9475129 -0.206646E-07  0.156E-03    1.97      11.3  T
   6    -62.9475129 -0.315595E-07  0.473E-04    1.97      37.4  T
   7    -62.9475129 -0.168826E-08  0.252E-04    1.97      70.0  T
     SCC iter.                  ...        0 min,  0.009 sec
     gradient                   ...        0 min,  0.004 sec
 * total energy  :   -62.2267930 Eh     change       -0.2084758E-04 Eh
   gradient norm :     0.0050460 Eh/α   predicted    -0.4540650E-04 ( 117.80%)
   displ. norm   :     0.0717824 α      lambda       -0.8214082E-04
   maximum displ.:     0.0525390 α      in ANC's #4, #8, #3, ...

........................................................................
.............................. CYCLE   53 ..............................
........................................................................

 iter      E             dE          RMSdq      gap      omega  full diag
   1    -62.9497166 -0.629497E+02  0.303E-02    1.97       0.0  T
   2    -62.9497173 -0.758488E-06  0.180E-02    1.97       1.0  T
   3    -62.9497170  0.283183E-06  0.489E-03    1.97       3.6  T
   4    -62.9497175 -0.445736E-06  0.911E-04    1.97      19.4  T
   5    -62.9497175 -0.495065E-08  0.564E-04    1.97      31.3  T
     SCC iter.                  ...        0 min,  0.007 sec
     gradient                   ...        0 min,  0.004 sec
 * total energy  :   -62.2268426 Eh     change       -0.4959347E-04 Eh
   gradient norm :     0.0023621 Eh/α   predicted    -0.4128951E-04 ( -16.74%)
   displ. norm   :     0.1419244 α      lambda       -0.4018635E-04
   maximum displ.:     0.1196123 α      in ANC's #2, #1, #7, ...

........................................................................
.............................. CYCLE   54 ..............................
........................................................................

 iter      E             dE          RMSdq      gap      omega  full diag
   1    -62.9501614 -0.629502E+02  0.355E-02    1.97       0.0  T
   2    -62.9501616 -0.191100E-06  0.211E-02    1.97       1.0  T
   3    -62.9501615  0.145149E-06  0.274E-03    1.97       6.4  T
   4    -62.9501617 -0.232588E-06  0.101E-03    1.97      17.5  T
   5    -62.9501617 -0.496838E-08  0.578E-04    1.97      30.6  T
   6    -62.9501617 -0.397336E-08  0.248E-04    1.97      71.2  T
     SCC iter.                  ...        0 min,  0.008 sec
     gradient                   ...        0 min,  0.004 sec
 * total energy  :   -62.2268770 Eh     change       -0.3441902E-04 Eh
   gradient norm :     0.0024057 Eh/α   predicted    -0.2051137E-04 ( -40.41%)
   displ. norm   :     0.4029533 α      lambda       -0.1066508E-03
   maximum displ.:     0.3422647 α      in ANC's #2, #1, #5, ...

........................................................................
.............................. CYCLE   55 ..............................
........................................................................

 iter      E             dE          RMSdq      gap      omega  full diag
   1    -62.9496598 -0.629497E+02  0.101E-01    1.96       0.0  T
   2    -62.9496610 -0.121309E-05  0.601E-02    1.96       1.0  T
   3    -62.9496602  0.830876E-06  0.679E-03    1.96       2.6  T
   4    -62.9496616 -0.144661E-05  0.257E-03    1.96       6.9  T
   5    -62.9496617 -0.166853E-07  0.126E-03    1.96      14.0  T
   6    -62.9496617 -0.217857E-07  0.580E-04    1.96      30.5  T
   7    -62.9496617 -0.432313E-08  0.355E-04    1.96      49.7  T
     SCC iter.                  ...        0 min,  0.009 sec
     gradient                   ...        0 min,  0.004 sec
 * total energy  :   -62.2269545 Eh     change       -0.7749177E-04 Eh
   gradient norm :     0.0022206 Eh/α   predicted    -0.6199207E-04 ( -20.00%)
   displ. norm   :     0.2976143 α      lambda       -0.6313033E-04
   maximum displ.:     0.2441754 α      in ANC's #2, #1, #5, ...

........................................................................
.............................. CYCLE   56 ..............................
........................................................................

 iter      E             dE          RMSdq      gap      omega  full diag
   1    -62.9493550 -0.629494E+02  0.814E-02    1.96       0.0  T
   2    -62.9493558 -0.759915E-06  0.481E-02    1.96       1.0  T
   3    -62.9493552  0.647665E-06  0.631E-03    1.96       2.8  T
   4    -62.9493562 -0.103318E-05  0.197E-03    1.96       9.0  T
   5    -62.9493562 -0.890513E-08  0.978E-04    1.96      18.1  T
   6    -62.9493562 -0.765019E-08  0.614E-04    1.96      28.8  T
     SCC iter.                  ...        0 min,  0.008 sec
     gradient                   ...        0 min,  0.004 sec
 * total energy  :   -62.2269986 Eh     change       -0.4405535E-04 Eh
   gradient norm :     0.0028322 Eh/α   predicted    -0.3436440E-04 ( -22.00%)
   displ. norm   :     0.1878321 α      lambda       -0.4714280E-04
   maximum displ.:     0.1353642 α      in ANC's #2, #4, #1, ...

........................................................................
.............................. CYCLE   57 ..............................
........................................................................

 iter      E             dE          RMSdq      gap      omega  full diag
   1    -62.9497290 -0.629497E+02  0.613E-02    1.95       0.0  T
   2    -62.9497295 -0.487674E-06  0.361E-02    1.95       1.0  T
   3    -62.9497290  0.505471E-06  0.534E-03    1.95       3.3  T
   4    -62.9497297 -0.728398E-06  0.142E-03    1.95      12.4  T
   5    -62.9497297 -0.698327E-08  0.776E-04    1.95      22.8  T
   6    -62.9497297 -0.296095E-08  0.482E-04    1.95      36.7  T
     SCC iter.                  ...        0 min,  0.008 sec
     gradient                   ...        0 min,  0.004 sec
 * total energy  :   -62.2270349 Eh     change       -0.3637537E-04 Eh
   gradient norm :     0.0027566 Eh/α   predicted    -0.2440318E-04 ( -32.91%)
   displ. norm   :     0.3081211 α      lambda       -0.6232213E-04
   maximum displ.:     0.2375660 α      in ANC's #2, #1, #5, ...

........................................................................
.............................. CYCLE   58 ..............................
........................................................................

 iter      E             dE          RMSdq      gap      omega  full diag
   1    -62.9489010 -0.629489E+02  0.975E-02    1.94       0.0  T
   2    -62.9489027 -0.168317E-05  0.573E-02    1.94       1.0  T
   3    -62.9489011  0.160971E-05  0.864E-03    1.94       2.0  T
   4    -62.9489033 -0.219635E-05  0.234E-03    1.94       7.5  T
   5    -62.9489033 -0.449325E-07  0.129E-03    1.94      13.7  T
   6    -62.9489033 -0.759722E-08  0.668E-04    1.94      26.5  T
   7    -62.9489033 -0.682867E-08  0.376E-04    1.94      47.0  T
     SCC iter.                  ...        0 min,  0.009 sec
     gradient                   ...        0 min,  0.004 sec
 * total energy  :   -62.2270749 Eh     change       -0.3995116E-04 Eh
   gradient norm :     0.0022294 Eh/α   predicted    -0.3412368E-04 ( -14.59%)
   displ. norm   :     0.1523536 α      lambda       -0.5965885E-04
   maximum displ.:     0.1085127 α      in ANC's #4, #5, #7, ...

........................................................................
.............................. CYCLE   59 ..............................
........................................................................

 iter      E             dE          RMSdq      gap      omega  full diag
   1    -62.9509092 -0.629509E+02  0.683E-02    1.94       0.0  T
   2    -62.9509101 -0.852972E-06  0.400E-02    1.94       1.0  T
   3    -62.9509087  0.141257E-05  0.705E-03    1.94       2.5  T
   4    -62.9509104 -0.174141E-05  0.154E-03    1.94      11.5  T
   5    -62.9509105 -0.328269E-07  0.917E-04    1.94      19.3  T
   6    -62.9509105 -0.695072E-08  0.517E-04    1.94      34.2  T
     SCC iter.                  ...        0 min,  0.008 sec
     gradient                   ...        0 min,  0.004 sec
 * total energy  :   -62.2270908 Eh     change       -0.1594589E-04 Eh
   gradient norm :     0.0027463 Eh/α   predicted    -0.3052247E-04 (  91.41%)
   displ. norm   :     0.1235424 α      lambda       -0.3106448E-04
   maximum displ.:     0.0955279 α      in ANC's #2, #1, #5, ...

........................................................................
.............................. CYCLE   60 ..............................
........................................................................

 iter      E             dE          RMSdq      gap      omega  full diag
   1    -62.9494069 -0.629494E+02  0.385E-02    1.93       0.0  T
   2    -62.9494080 -0.102548E-05  0.228E-02    1.93       1.0  T
   3    -62.9494074  0.532393E-06  0.639E-03    1.93       2.8  T
   4    -62.9494082 -0.816417E-06  0.102E-03    1.93      17.3  T
   5    -62.9494082 -0.195476E-08  0.621E-04    1.93      28.4  T
   6    -62.9494082 -0.477858E-08  0.216E-04    1.93      82.0  T
     SCC iter.                  ...        0 min,  0.008 sec
     gradient                   ...        0 min,  0.004 sec
 * total energy  :   -62.2271072 Eh     change       -0.1634032E-04 Eh
   gradient norm :     0.0032452 Eh/α   predicted    -0.1577018E-04 (  -3.49%)
   displ. norm   :     0.0584480 α      lambda       -0.2260497E-04
   maximum displ.:     0.0328678 α      in ANC's #2, #1, #3, ...

........................................................................
.............................. CYCLE   61 ..............................
........................................................................

 iter      E             dE          RMSdq      gap      omega  full diag
   1    -62.9492749 -0.629493E+02  0.181E-02    1.94       0.0  T
   2    -62.9492752 -0.307806E-06  0.107E-02    1.94       1.6  T
   3    -62.9492751  0.869868E-07  0.256E-03    1.94       6.9  T
   4    -62.9492753 -0.126273E-06  0.589E-04    1.94      30.0  T
   5    -62.9492753 -0.509274E-08  0.297E-04    1.94      59.6  T
     SCC iter.                  ...        0 min,  0.007 sec
     gradient                   ...        0 min,  0.004 sec
 * total energy  :   -62.2271190 Eh     change       -0.1184323E-04 Eh
   gradient norm :     0.0016933 Eh/α   predicted    -0.1134266E-04 (  -4.23%)
   displ. norm   :     0.0939981 α      lambda       -0.1744946E-04
   maximum displ.:     0.0548939 α      in ANC's #3, #4, #1, ...

........................................................................
.............................. CYCLE   62 ..............................
........................................................................

 iter      E             dE          RMSdq      gap      omega  full diag
   1    -62.9497523 -0.629498E+02  0.337E-02    1.94       0.0  T
   2    -62.9497524 -0.132788E-06  0.198E-02    1.94       1.0  T
   3    -62.9497523  0.100547E-06  0.212E-03    1.94       8.3  T
   4    -62.9497525 -0.143533E-06  0.608E-04    1.94      29.1  T
   5    -62.9497525 -0.439633E-08  0.361E-04    1.94      49.0  T
     SCC iter.                  ...        0 min,  0.008 sec
     gradient                   ...        0 min,  0.007 sec
 * total energy  :   -62.2271398 Eh     change       -0.2081305E-04 Eh
   gradient norm :     0.0014456 Eh/α   predicted    -0.8759968E-05 ( -57.91%)
   displ. norm   :     0.3146326 α      lambda       -0.2614050E-04
   maximum displ.:     0.1636422 α      in ANC's #2, #1, #4, ...

........................................................................
.............................. CYCLE   63 ..............................
........................................................................

 iter      E             dE          RMSdq      gap      omega  full diag
   1    -62.9486523 -0.629487E+02  0.118E-01    1.93       0.0  T
   2    -62.9486533 -0.953574E-06  0.696E-02    1.93       1.0  T
   3    -62.9486523  0.940034E-06  0.669E-03    1.93       2.6  T
   4    -62.9486537 -0.141067E-05  0.205E-03    1.93       8.6  T
   5    -62.9486537 -0.179383E-07  0.108E-03    1.93      16.3  T
   6    -62.9486538 -0.814544E-08  0.598E-04    1.93      29.5  T
   7    -62.9486538 -0.529066E-08  0.377E-04    1.93      46.9  T
     SCC iter.                  ...        0 min,  0.019 sec
     gradient                   ...        0 min,  0.004 sec
 * total energy  :   -62.2271634 Eh     change       -0.2358336E-04 Eh
   gradient norm :     0.0020227 Eh/α   predicted    -0.1364607E-04 ( -42.14%)
   displ. norm   :     0.0790579 α      lambda       -0.1908529E-04
   maximum displ.:     0.0594646 α      in ANC's #3, #1, #4, ...

........................................................................
.............................. CYCLE   64 ..............................
........................................................................

 iter      E             dE          RMSdq      gap      omega  full diag
   1    -62.9496891 -0.629497E+02  0.260E-02    1.93       0.0  T
   2    -62.9496892 -0.118058E-06  0.153E-02    1.93       1.2  T
   3    -62.9496889  0.334408E-06  0.313E-03    1.93       5.7  T
   4    -62.9496893 -0.399747E-06  0.753E-04    1.93      23.5  T
   5    -62.9496893 -0.653388E-08  0.513E-04    1.93      34.5  T
     SCC iter.                  ...        0 min,  0.007 sec
     gradient                   ...        0 min,  0.005 sec
 * total energy  :   -62.2271770 Eh     change       -0.1354601E-04 Eh
   gradient norm :     0.0013442 Eh/α   predicted    -0.9605981E-05 ( -29.09%)
   displ. norm   :     0.2183099 α      lambda       -0.1420933E-04
   maximum displ.:     0.1118342 α      in ANC's #1, #2, #3, ...

........................................................................
.............................. CYCLE   65 ..............................
........................................................................

 iter      E             dE          RMSdq      gap      omega  full diag
   1    -62.9496548 -0.629497E+02  0.787E-02    1.92       0.0  T
   2    -62.9496559 -0.110388E-05  0.462E-02    1.92       1.0  T
   3    -62.9496550  0.849719E-06  0.573E-03    1.92       3.1  T
   4    -62.9496561 -0.107083E-05  0.185E-03    1.92       9.6  T
   5    -62.9496562 -0.822953E-07  0.922E-04    1.92      19.2  T
   6    -62.9496562 -0.552966E-08  0.487E-04    1.92      36.3  T
     SCC iter.                  ...        0 min,  0.008 sec
     gradient                   ...        0 min,  0.004 sec
 * total energy  :   -62.2271887 Eh     change       -0.1177735E-04 Eh
   gradient norm :     0.0018228 Eh/α   predicted    -0.7261354E-05 ( -38.34%)
   displ. norm   :     0.1228025 α      lambda       -0.9987531E-05
   maximum displ.:     0.0740303 α      in ANC's #3, #1, #2, ...

........................................................................
.............................. CYCLE   66 ..............................
........................................................................

 iter      E             dE          RMSdq      gap      omega  full diag
   1    -62.9499969 -0.629500E+02  0.472E-02    1.93       0.0  T
   2    -62.9499985 -0.165379E-05  0.278E-02    1.93       1.0  T
   3    -62.9499979  0.661866E-06  0.642E-03    1.93       2.8  T
   4    -62.9499987 -0.865618E-06  0.144E-03    1.93      12.3  T
   5    -62.9499988 -0.560876E-07  0.713E-04    1.93      24.8  T
   6    -62.9499988 -0.741650E-08  0.465E-04    1.93      38.0  T
     SCC iter.                  ...        0 min,  0.008 sec
     gradient                   ...        0 min,  0.004 sec
 * total energy  :   -62.2271947 Eh     change       -0.5932251E-05 Eh
   gradient norm :     0.0012907 Eh/α   predicted    -0.5029466E-05 ( -15.22%)
   displ. norm   :     0.0798866 α      lambda       -0.5053207E-05
   maximum displ.:     0.0530203 α      in ANC's #2, #1, #3, ...
 * RMSD in coord.:     0.6285828 α      energy gain  -0.1443816E-02 Eh

generating ANC from exact Hessian ...
Using Lindh-Hessian (1995)
 Shifting diagonal of input Hessian by    9.5092124882489269E-003
 Lowest  eigenvalues of input Hessian
    0.000000    0.000000    0.000000    0.000000    0.000000    0.000000
    0.010000    0.010207    0.010707    0.011083    0.012427    0.013975
    0.015327    0.016780    0.020235    0.021195    0.024200    0.025276
 Highest eigenvalues
    1.971411    2.017715    2.131615    2.145144    2.243280    2.426373


........................................................................
.............................. CYCLE   67 ..............................
........................................................................

 iter      E             dE          RMSdq      gap      omega  full diag
   1    -62.9494681 -0.629495E+02  0.290E-02    1.92       0.0  T
   2    -62.9494685 -0.325666E-06  0.170E-02    1.92       1.0  T
   3    -62.9494683  0.195254E-06  0.327E-03    1.92       5.4  T
   4    -62.9494685 -0.262310E-06  0.741E-04    1.92      23.8  T
   5    -62.9494685 -0.862231E-08  0.400E-04    1.92      44.2  T
     SCC iter.                  ...        0 min,  0.007 sec
     gradient                   ...        0 min,  0.004 sec
 * total energy  :   -62.2271999 Eh     change       -0.5180472E-05 Eh
   gradient norm :     0.0010926 Eh/α   predicted     0.0000000E+00 (-100.00%)
   displ. norm   :     0.0193433 α      lambda       -0.4269633E-05
   maximum displ.:     0.0087868 α      in ANC's #2, #4, #6, ...

........................................................................
.............................. CYCLE   68 ..............................
........................................................................

 iter      E             dE          RMSdq      gap      omega  full diag
   1    -62.9499924 -0.629500E+02  0.842E-03    1.92       0.0  T
   2    -62.9499924 -0.477074E-07  0.494E-03    1.92       3.6  T
   3    -62.9499924  0.291990E-07  0.123E-03    1.92      14.3  T
   4    -62.9499924 -0.405613E-07  0.332E-04    1.92      53.3  T
   5    -62.9499924 -0.178129E-08  0.182E-04    1.92      96.9  T
     SCC iter.                  ...        0 min,  0.007 sec
     gradient                   ...        0 min,  0.004 sec
 * total energy  :   -62.2272042 Eh     change       -0.4336235E-05 Eh
   gradient norm :     0.0003832 Eh/α   predicted    -0.2146939E-05 ( -50.49%)
   displ. norm   :     0.0374910 α      lambda       -0.3909085E-05
   maximum displ.:     0.0178680 α      in ANC's #2, #4, #3, ...

   *** GEOMETRY OPTIMIZATION CONVERGED AFTER 68 ITERATIONS ***

------------------------------------------------------------------------
 total energy gain   :        -0.0225975 Eh      -14.1802 kcal/mol
 total RMSD          :         2.5715870 a0        1.3608 Å
 total power (kW/mol):        -0.8724967 (step)  -51.0278 (real)
------------------------------------------------------------------------

 ANCopt (total)                0 d,  0 h,  0 min,  1.163 sec
 optimizer setup                ...        0 min,  0.000 sec (  0.015%)
 model hessian                  ...        0 min,  0.024 sec (  2.064%)
 ANC generation                 ...        0 min,  0.002 sec (  0.196%)
 coordinate transformation      ...        0 min,  0.001 sec (  0.071%)
 single point calculation       ...        0 min,  1.111 sec ( 95.532%)
 optimization log               ...        0 min,  0.012 sec (  1.061%)
 hessian update                 ...        0 min,  0.003 sec (  0.221%)
 rational function              ...        0 min,  0.007 sec (  0.579%)

================
 final structure:
================
32
 xtb: 6.7.1 (edcfbbe)
N            0.44208788197758        0.41959584843941        1.04119591357944
C            0.73474364434174       -0.76577876225028        0.50175173568271
C           -0.17927676320708       -1.38884699225003       -0.35708490928798
C           -1.35725899475584       -0.70331803173013       -0.62494254780421
N           -1.62182588422863        0.48602813071165       -0.09117348202994
C           -0.70777133150926        0.97616797652915        0.72182388871502
C           -2.39743548812509       -1.26221868581196       -1.54424006023677
O           -3.31575632699921       -0.64751359938068       -2.00713892577979
O           -2.18438621444186       -2.56095817353255       -1.81411410555257
C            2.02555210389932       -1.35364957234688        0.86394119419498
C            2.60790922019202       -2.38969950810214        0.13944749036887
C            3.83567545125677       -2.90916363766330        0.50537024055810
C            4.51467679505512       -2.41635753549611        1.61528952981629
C            3.92656628557810       -1.36737009107855        2.34038711973349
C            2.71027557435599       -0.84171789428707        1.96958018425481
Cl           4.76437668876344       -0.74430314826318        3.71084680484159
O            5.71401244342535       -2.86169928938301        2.05861522507205
C            6.32995761809302       -3.93458887810872        1.40049597758645
C            7.01672476007115       -3.63853648394043        0.05494065144524
O            8.28416599491307       -4.02073013634831        0.58735986696920
C            7.75506741959872       -4.18661587177633        1.90362617909630
H           -0.00273268183872       -2.35862957353536       -0.78864210468386
H           -0.92294271787657        1.93694292646884        1.17148286685567
H           -2.87765099398715       -2.88999108950263       -2.40843256335097
H            2.12133940618744       -2.78913607214388       -0.73613820601368
H            4.27070215904220       -3.69936329186757       -0.08537831564226
H            2.27044629882520       -0.03084637019042        2.52695761028453
H            5.68134871443187       -4.81796466229168        1.39935227848358
H            6.72461648135526       -4.25987278097076       -0.79496011565162
H            6.99417487678042       -2.58080503116261       -0.22507969513195
H            8.10842139291595       -3.41226651884683        2.58887425334974
H            7.96092618590738       -5.17764319988974        2.31108602028003

 Bond Distances (Angstroems)
 ---------------------------
N1-C2=1.3348         N1-C6=1.3168         C2-N1=1.3348         C2-C3=1.4004         C2-C10=1.4639        C3-C2=1.4004         
C3-C4=1.3890         C3-H22=1.0761        C4-C3=1.3890         C4-N5=1.3302         C4-C7=1.4965         N5-C4=1.3302         
N5-C6=1.3178         C6-N1=1.3168         C6-N5=1.3178         C6-H23=1.0824        C7-C4=1.4965         C7-O8=1.1981         
C7-O9=1.3435         O8-C7=1.1981         O9-C7=1.3435         O9-H24=0.9706        C10-C2=1.4639        C10-C11=1.3919       
C10-C15=1.3976       C11-C10=1.3919       C11-C12=1.3824       C11-H25=1.0784       C12-C11=1.3824       C12-C13=1.3913       
C12-H26=1.0783       C13-C12=1.3913       C13-C14=1.4043       C13-O17=1.3540       C14-C13=1.4043       C14-C15=1.3759       
C14-Cl16=1.7229      C15-C10=1.3976       C15-C14=1.3759       C15-H27=1.0778       Cl16-C14=1.7229      O17-C13=1.3540       
O17-C18=1.4013       C18-O17=1.4013       C18-C19=1.5394       C18-C21=1.5322       C18-H28=1.0959       C19-C18=1.5394       
C19-O20=1.4269       C19-H29=1.0926       C19-H30=1.0944       O20-C19=1.4269       O20-C21=1.4283       C21-C18=1.5322       
C21-O20=1.4283       C21-H31=1.0927       C21-H32=1.0911       H22-C3=1.0761        H23-C6=1.0824        H24-O9=0.9706        
H25-C11=1.0784       H26-C12=1.0783       H27-C15=1.0778       H28-C18=1.0959       H29-C19=1.0926       H30-C19=1.0944       
H31-C21=1.0927       H32-C21=1.0911       
 C  H  Rav=1.0860 sigma=0.0076  Rmin=1.0761  Rmax=1.0959    10
 C  C  Rav=1.4304 sigma=0.0580  Rmin=1.3759  Rmax=1.5394    12
 N  C  Rav=1.3249 sigma=0.0078  Rmin=1.3168  Rmax=1.3348     4
 O  H  Rav=0.9706 sigma=0.0000  Rmin=0.9706  Rmax=0.9706     1
 O  C  Rav=1.3587 sigma=0.0789  Rmin=1.1981  Rmax=1.4283     6
 Cl C  Rav=1.7229 sigma=0.0000  Rmin=1.7229  Rmax=1.7229     1

 selected bond angles (degree)
 --------------------
C6-N1-C2=117.96                C3-C2-N1=119.99                C10-C2-N1=116.74               C10-C2-C3=123.27               
C4-C3-C2=116.88                H22-C3-C2=122.67               H22-C3-C4=120.44               N5-C4-C3=122.18                
C7-C4-C3=121.58                C7-C4-N5=116.24                C6-N5-C4=116.24                N5-C6-N1=126.73                
H23-C6-N1=116.62               H23-C6-N5=116.65               O8-C7-C4=125.34                O9-C7-C4=111.98                
O9-C7-O8=122.68                H24-O9-C7=109.72               C11-C10-C2=122.62              C15-C10-C2=118.73              
C15-C10-C11=118.65             

 selected dihedral angles (degree)
 ---------------------------------
C3-C2-N1-C6=358.95            C10-C2-N1-C6=179.38           C4-C3-C2-N1=  1.32            C4-C3-C2-C10=180.86           
H22-C3-C2-N1=182.16           H22-C3-C2-C10=  1.70          N5-C4-C3-C2=359.59            N5-C4-C3-H22=178.76           
C7-C4-C3-C2=179.06            C7-C4-C3-H22=358.24           C6-N5-C4-C3=359.29            C6-N5-C4-C7=179.78            
N5-C6-N1-C2=359.81            H23-C6-N1-C2=180.00           N1-C6-N5-C4=  1.08            H23-C6-N5-C4=180.89           
O8-C7-C4-C3=193.81            O8-C7-C4-N5= 13.31            O9-C7-C4-C3= 13.32            O9-C7-C4-N5=192.83            
H24-O9-C7-C4=179.79           H24-O9-C7-O8=359.32           C11-C10-C2-N1=196.68          C11-C10-C2-C3= 17.13          
C15-C10-C2-N1= 15.73          C15-C10-C2-C3=196.17          
           -------------------------------------------------
          |                Final Singlepoint                |
           -------------------------------------------------

          ...................................................
          :                      SETUP                      :
          :.................................................:
          :  # basis functions                 101          :
          :  # atomic orbitals                 100          :
          :  # shells                           54          :
          :  # electrons                       108          :
          :  max. iterations                   250          :
          :  Hamiltonian                  GFN2-xTB          :
          :  restarted?                      false          :
          :  GBSA solvation                  false          :
          :  PC potential                    false          :
          :  electronic temp.          300.0000000     K    :
          :  accuracy                    1.0000000          :
          :  -> integral cutoff          0.2500000E+02      :
          :  -> integral neglect         0.1000000E-07      :
          :  -> SCF convergence          0.1000000E-05 Eh   :
          :  -> wf. convergence          0.1000000E-03 e    :
          :  Broyden damping             0.4000000          :
          :  net charge                          0          :
          :  unpaired electrons                  0          :
          ...................................................

 iter      E             dE          RMSdq      gap      omega  full diag
   1    -62.9499924 -0.629500E+02  0.729E-05    1.92       0.0  T
   2    -62.9499924 -0.280664E-10  0.531E-05    1.92     333.0  T
   3    -62.9499924 -0.238671E-10  0.393E-05    1.92     449.8  T

   *** convergence criteria satisfied after 3 iterations ***

         #    Occupation            Energy/Eh            Energy/eV
      -------------------------------------------------------------
         1        2.0000           -1.0603688             -28.8541
       ...           ...                  ...                  ...
        48        2.0000           -0.4399656             -11.9721
        49        2.0000           -0.4249007             -11.5621
        50        2.0000           -0.4227025             -11.5023
        51        2.0000           -0.4200431             -11.4300
        52        2.0000           -0.4151693             -11.2973
        53        2.0000           -0.4019049             -10.9364
        54        2.0000           -0.3818588             -10.3909 (HOMO)
        55                         -0.3111795              -8.4676 (LUMO)
        56                         -0.2865614              -7.7977
        57                         -0.2565054              -6.9799
        58                         -0.2400715              -6.5327
        59                         -0.2106468              -5.7320
       ...                                ...                  ...
       100                          0.6854665              18.6525
      -------------------------------------------------------------
                  HL-Gap            0.0706793 Eh            1.9233 eV
             Fermi-level           -0.3465191 Eh           -9.4293 eV

 SCC (total)                   0 d,  0 h,  0 min,  0.010 sec
 SCC setup                      ...        0 min,  0.000 sec (  1.480%)
 Dispersion                     ...        0 min,  0.000 sec (  1.501%)
 classical contributions        ...        0 min,  0.000 sec (  0.235%)
 integral evaluation            ...        0 min,  0.001 sec ( 13.854%)
 iterations                     ...        0 min,  0.004 sec ( 40.015%)
 molecular gradient             ...        0 min,  0.004 sec ( 41.850%)
 printout                       ...        0 min,  0.000 sec (  0.917%)

         :::::::::::::::::::::::::::::::::::::::::::::::::::::
         ::                     SUMMARY                     ::
         :::::::::::::::::::::::::::::::::::::::::::::::::::::
         :: total energy             -62.227204194894 Eh    ::
         :: gradient norm              0.000383337266 Eh/a0 ::
         :: HOMO-LUMO gap              1.923280850245 eV    ::
         ::.................................................::
         :: SCC energy               -62.950211542222 Eh    ::
         :: -> isotropic ES            0.095501953302 Eh    ::
         :: -> anisotropic ES          0.005513919562 Eh    ::
         :: -> anisotropic XC          0.020069852751 Eh    ::
         :: -> dispersion             -0.034306729587 Eh    ::
         :: repulsion energy           0.723007347328 Eh    ::
         :: add. restraining           0.000000000000 Eh    ::
         :: total charge              -0.000000000000 e     ::
         :::::::::::::::::::::::::::::::::::::::::::::::::::::

           -------------------------------------------------
          |                Property Printout                |
           -------------------------------------------------

    * Orbital Energies and Occupations

         #    Occupation            Energy/Eh            Energy/eV
      -------------------------------------------------------------
         1        2.0000           -1.0603688             -28.8541
       ...           ...                  ...                  ...
        42        2.0000           -0.4790832             -13.0365
        43        2.0000           -0.4696637             -12.7802
        44        2.0000           -0.4673847             -12.7182
        45        2.0000           -0.4653841             -12.6637
        46        2.0000           -0.4566509             -12.4261
        47        2.0000           -0.4534505             -12.3390
        48        2.0000           -0.4399656             -11.9721
        49        2.0000           -0.4249007             -11.5621
        50        2.0000           -0.4227025             -11.5023
        51        2.0000           -0.4200431             -11.4300
        52        2.0000           -0.4151693             -11.2973
        53        2.0000           -0.4019049             -10.9364
        54        2.0000           -0.3818588             -10.3909 (HOMO)
        55                         -0.3111795              -8.4676 (LUMO)
        56                         -0.2865614              -7.7977
        57                         -0.2565054              -6.9799
        58                         -0.2400715              -6.5327
        59                         -0.2106468              -5.7320
        60                         -0.1470677              -4.0019
        61                         -0.1412917              -3.8447
        62                         -0.1031837              -2.8078
        63                         -0.0470236              -1.2796
        64                         -0.0200728              -0.5462
        65                         -0.0047426              -0.1291
       ...                                ...                  ...
       100                          0.6854665              18.6525
      -------------------------------------------------------------
                  HL-Gap            0.0706793 Eh            1.9233 eV
             Fermi-level           -0.3465191 Eh           -9.4293 eV

     #   Z          covCN         q      C6AA      α(0)
     1   7 N        1.843    -0.232    26.930     7.691
     2   6 C        2.975     0.116    25.435     8.273
     3   6 C        2.910    -0.049    29.211     8.862
     4   6 C        2.984     0.087    26.067     8.375
     5   7 N        1.839    -0.217    26.562     7.638
     6   6 C        2.911     0.153    24.687     8.147
     7   6 C        2.696     0.354    20.998     7.500
     8   8 O        0.856    -0.367    21.034     6.149
     9   8 O        1.660    -0.380    20.457     6.106
    10   6 C        2.979    -0.001    28.036     8.685
    11   6 C        2.921    -0.035    28.865     8.810
    12   6 C        2.918    -0.067    29.671     8.932
    13   6 C        2.903     0.142    24.902     8.182
    14   6 C        2.885     0.079    26.234     8.397
    15   6 C        2.962    -0.037    28.925     8.822
    16  17 Cl       0.970    -0.142   103.608    15.572
    17   8 O        1.707    -0.245    18.054     5.737
    18   6 C        3.792     0.107    18.835     6.180
    19   6 C        4.029     0.071    19.324     6.245
    20   8 O        1.743    -0.313    19.216     5.919
    21   6 C        4.030     0.072    19.297     6.240
    22   1 H        0.926     0.063     2.160     2.298
    23   1 H        0.925     0.061     2.192     2.315
    24   1 H        0.804     0.335     0.625     1.242
    25   1 H        0.926     0.055     2.262     2.352
    26   1 H        0.926     0.048     2.341     2.392
    27   1 H        0.926     0.094     1.841     2.122
    28   1 H        0.924     0.034     2.524     2.485
    29   1 H        0.924     0.043     2.404     2.425
    30   1 H        0.924     0.052     2.290     2.367
    31   1 H        0.924     0.066     2.132     2.283
    32   1 H        0.924     0.052     2.301     2.372

 Mol. C6AA /au·bohr⁶  :      15273.029168
 Mol. C8AA /au·bohr⁸  :     388267.743536
 Mol. α(0) /au        :        191.115573


Wiberg/Mayer (AO) data.
largest (>0.10) Wiberg bond orders for each atom

 ---------------------------------------------------------------------------
     #   Z sym  total        # sym  WBO       # sym  WBO       # sym  WBO
 ---------------------------------------------------------------------------
     1   7 N    3.065 --     6 C    1.441     2 C    1.375
     2   6 C    3.974 --     1 N    1.375     3 C    1.355    10 C    1.069
     3   6 C    3.986 --     4 C    1.419     2 C    1.355    22 H    0.961
                             6 C    0.105
     4   6 C    3.978 --     3 C    1.419     5 N    1.386     7 C    0.968
     5   7 N    3.058 --     6 C    1.431     4 C    1.386
     6   6 C    3.963 --     1 N    1.441     5 N    1.431    23 H    0.954
                             3 C    0.105
     7   6 C    3.920 --     8 O    1.784     9 O    1.120     4 C    0.968
     8   8 O    2.075 --     7 C    1.784     9 O    0.180
     9   8 O    2.194 --     7 C    1.120    24 H    0.863     8 O    0.180
    10   6 C    3.986 --    11 C    1.381    15 C    1.350     2 C    1.069
    11   6 C    3.990 --    12 C    1.451    10 C    1.381    25 H    0.964
    12   6 C    3.985 --    11 C    1.451    13 C    1.364    26 H    0.964
    13   6 C    3.930 --    12 C    1.364    14 C    1.297    17 O    1.078
    14   6 C    3.923 --    15 C    1.454    13 C    1.297    16 Cl   0.990
    15   6 C    3.982 --    14 C    1.454    10 C    1.350    27 H    0.958
    16  17 Cl   1.135 --    14 C    0.990
    17   8 O    2.267 --    13 C    1.078    18 C    0.973
    18   6 C    3.940 --    21 C    0.988    19 C    0.977    17 O    0.973
                            28 H    0.961
    19   6 C    3.950 --    20 O    0.982    18 C    0.977    29 H    0.974
                            30 H    0.971
    20   8 O    2.032 --    19 C    0.982    21 C    0.980
    21   6 C    3.949 --    18 C    0.988    20 O    0.980    32 H    0.974
                            31 H    0.969
    22   1 H    0.996 --     3 C    0.961
    23   1 H    0.995 --     6 C    0.954
    24   1 H    0.887 --     9 O    0.863
    25   1 H    0.996 --    11 C    0.964
    26   1 H    0.997 --    12 C    0.964
    27   1 H    0.990 --    15 C    0.958
    28   1 H    0.998 --    18 C    0.961
    29   1 H    0.998 --    19 C    0.974
    30   1 H    0.997 --    19 C    0.971
    31   1 H    0.996 --    21 C    0.969
    32   1 H    0.997 --    21 C    0.974
 ---------------------------------------------------------------------------

Topologies differ in total number of bonds
Writing topology from bond orders to xtbtopo.mol

molecular dipole:
                 x           y           z       tot (Debye)
 q only:        0.372      -1.401      -0.253
   full:        0.407      -1.937      -0.435       5.152
molecular quadrupole (traceless):
                xx          xy          yy          xz          yz          zz
 q only:      -21.112      -0.629      21.068      -6.507       3.458       0.044
  q+dip:      -26.725       1.458      25.909      -4.629       6.380       0.816
   full:      -27.196       2.972      24.633      -6.952       3.694       2.564

           -------------------------------------------------
          |                Geometry Summary                 |
           -------------------------------------------------

      molecular mass/u    :      306.7016145
   center of mass at/Å    :        2.5144292      -1.6952347       0.7989798
  moments of inertia/u·Å² :        0.8097091E+03   0.4530022E+04   0.5220556E+04
rotational constants/cm⁻¹ :        0.2081937E-01   0.3721314E-02   0.3229087E-02

 * 32 selected distances

     #   Z          #   Z                                           value/Å
     1   7 N        2   6 C                                       1.3348261
     2   6 C        3   6 C                                       1.4004457
     3   6 C        4   6 C                                       1.3890069
     4   6 C        5   7 N                                       1.3302066
     1   7 N        6   6 C                                       1.3167944
     5   7 N        6   6 C                                       1.3178383
     7   6 C        8   8 O                                       1.1981031
     7   6 C        9   8 O                                       1.3434830
    10   6 C       11   6 C                                       1.3919162
    11   6 C       12   6 C                                       1.3824445
    12   6 C       13   6 C                                       1.3913382
    13   6 C       14   6 C                                       1.4042847
    10   6 C       15   6 C                                       1.3976259
    14   6 C       15   6 C                                       1.3759257
    14   6 C       16  17 Cl                                      1.7228752 (max)
    13   6 C       17   8 O                                       1.3539842
    17   8 O       18   6 C                                       1.4012858
    18   6 C       19   6 C                                       1.5394206
    19   6 C       20   8 O                                       1.4268672
    18   6 C       21   6 C                                       1.5321867
    20   8 O       21   6 C                                       1.4282930
     3   6 C       22   1 H                                       1.0760520
     6   6 C       23   1 H                                       1.0823958
     9   8 O       24   1 H                                       0.9706149 (min)
    11   6 C       25   1 H                                       1.0784017
    12   6 C       26   1 H                                       1.0782615
    15   6 C       27   1 H                                       1.0777904
    18   6 C       28   1 H                                       1.0959233
    19   6 C       29   1 H                                       1.0925738
    19   6 C       30   1 H                                       1.0944021
    21   6 C       31   1 H                                       1.0927219
    21   6 C       32   1 H                                       1.0911172

 * 6 distinct bonds (by element types)

   Z      Z             #   av. dist./Å        max./Å        min./Å
   1 H    6 C          10     1.0859640     1.0959233     1.0760520
   6 C    6 C          10     1.4204595     1.5394206     1.3759257
   6 C    7 N           4     1.3249164     1.3348261     1.3167944
   1 H    8 O           1     0.9706149     0.9706149     0.9706149
   6 C    8 O           6     1.3586694     1.4282930     1.1981031
   6 C   17 Cl          1     1.7228752     1.7228752     1.7228752


optimized geometry written to: xtbopt.xyz


           -------------------------------------------------
          | TOTAL ENERGY              -62.227204194894 Eh   |
          | GRADIENT NORM               0.000383337266 Eh/α |
          | HOMO-LUMO GAP               1.923280850245 eV   |
           -------------------------------------------------

------------------------------------------------------------------------
 * finished run on 2024/12/17 at 14:08:01.920     
------------------------------------------------------------------------
 total:
 * wall-time:     0 d,  0 h,  0 min,  1.221 sec
 *  cpu-time:     0 d,  0 h,  0 min,  9.648 sec
 * ratio c/w:     7.902 speedup
 SCF:
 * wall-time:     0 d,  0 h,  0 min,  0.029 sec
 *  cpu-time:     0 d,  0 h,  0 min,  0.227 sec
 * ratio c/w:     7.949 speedup
 ANC optimizer:
 * wall-time:     0 d,  0 h,  0 min,  1.174 sec
 *  cpu-time:     0 d,  0 h,  0 min,  9.288 sec
 * ratio c/w:     7.912 speedup

