      -----------------------------------------------------------      
     |                   =====================                   |     
     |                           x T B                           |     
     |                   =====================                   |     
     |                         S. Grimme                         |     
     |          Mulliken Center for Theoretical Chemistry        |     
     |                    University of Bonn                     |     
      -----------------------------------------------------------      

   * xtb version 6.7.1 (edcfbbe) compiled by 'conda@3ef47c1a292c' on 2024-11-25

   xtb is free software: you can redistribute it and/or modify it under
   the terms of the GNU Lesser General Public License as published by
   the Free Software Foundation, either version 3 of the License, or
   (at your option) any later version.
   
   xtb is distributed in the hope that it will be useful,
   but WITHOUT ANY WARRANTY; without even the implied warranty of
   MERCHANTABILITY or FITNESS FOR A PARTICULAR PURPOSE.  See the
   GNU Lesser General Public License for more details.
   
   Cite this work as:
   * C. Bannwarth, E. Caldeweyher, S. Ehlert, A. Hansen, P. Pracht,
     J. Seibert, S. Spicher, S. Grimme, WIREs Comput. Mol. Sci., 2020, 11,
     e01493. DOI: 10.1002/wcms.1493
   
   for GFN2-xTB:
   * C. Bannwarth, S. Ehlert and S. Grimme., J. Chem. Theory Comput., 2019,
     15, 1652-1671. DOI: 10.1021/acs.jctc.8b01176
   for GFN1-xTB:
   * S. Grimme, C. Bannwarth, P. Shushkov, J. Chem. Theory Comput., 2017,
     13, 1989-2009. DOI: 10.1021/acs.jctc.7b00118
   for GFN0-xTB:
   * P. Pracht, E. Caldeweyher, S. Ehlert, S. Grimme, ChemRxiv, 2019, preprint.
     DOI: 10.26434/chemrxiv.8326202.v1
   for GFN-FF:
   * S. Spicher and S. Grimme, Angew. Chem. Int. Ed., 2020, 59, 15665-15673.
     DOI: 10.1002/anie.202004239
   
   for ALPB and GBSA implicit solvation:
   * S. Ehlert, M. Stahn, S. Spicher, S. Grimme, J. Chem. Theory Comput.,
     2021, 17, 4250-4261. DOI: 10.1021/acs.jctc.1c00471
   
   for ddCOSMO and CPCM-X implicit solvation:
   * M. Stahn, S. Ehlert, S. Grimme, J. Phys. Chem. A,
     2023, XX, XXXX-XXXX. DOI: 10.1021/acs.jpca.3c04382
   
   for DFT-D4:
   * E. Caldeweyher, C. Bannwarth and S. Grimme, J. Chem. Phys., 2017,
     147, 034112. DOI: 10.1063/1.4993215
   * E. Caldeweyher, S. Ehlert, A. Hansen, H. Neugebauer, S. Spicher,
     C. Bannwarth and S. Grimme, J. Chem. Phys., 2019, 150, 154122.
     DOI: 10.1063/1.5090222
   * E. Caldeweyher, J.-M. Mewes, S. Ehlert and S. Grimme, Phys. Chem. Chem. Phys.
     2020, 22, 8499-8512. DOI: 10.1039/D0CP00502A
   
   for sTDA-xTB:
   * S. Grimme and C. Bannwarth, J. Chem. Phys., 2016, 145, 054103.
     DOI: 10.1063/1.4959605
   
   in the mass-spec context:
   * V. Asgeirsson, C. Bauer and S. Grimme, Chem. Sci., 2017, 8, 4879.
     DOI: 10.1039/c7sc00601b
   * J. Koopman and S. Grimme, ACS Omega 2019, 4, 12, 15120-15133.
     DOI: 10.1021/acsomega.9b02011
   
   for metadynamics refer to:
   * S. Grimme, J. Chem. Theory Comput., 2019, 155, 2847-2862
     DOI: 10.1021/acs.jctc.9b00143
   
   for SPH calculations refer to:
   * S. Spicher and S. Grimme, J. Chem. Theory Comput., 2021, 17, 1701-1714
     DOI: 10.1021/acs.jctc.0c01306
   
   for ONIOM refer to:
   * C. Plett, A. Katbashev, S. Ehlert, S. Grimme, M. Bursch,
     Phys. Chem. Chem. Phys., 2023, 25, 17860-17868. DOI: 10.1039/D3CP02178E
   
   for DIPRO refer to:
   * J. Kohn, N. Gildemeister, S. Grimme, D. Fazzi, A. Hansen,
     J. Chem. Phys., 2023, just accepted.
   
   for PTB refer to:
   * S. Grimme, M. Mueller, A. Hansen, J. Chem. Phys., 2023, 158, 124111.
     DOI: 10.1063/5.0137838
   
   with help from (in alphabetical order)
   P. Atkinson, C. Bannwarth, F. Bohle, G. Brandenburg, E. Caldeweyher
   M. Checinski, S. Dohm, S. Ehlert, S. Ehrlich, I. Gerasimov, C. Hölzer
   A. Katbashev, J. Kohn, J. Koopman, C. Lavigne, S. Lehtola, F. März, M. Müller,
   F. Musil, H. Neugebauer, J. Pisarek, C. Plett, P. Pracht, F. Pultar,
   J. Seibert, P. Shushkov, S. Spicher, M. Stahn, M. Steiner, T. Strunk,
   J. Stückrath, T. Rose, and J. Unsleber
   
 * started run on 2024/12/17 at 14:08:16.593     
   ID    Z sym.   atoms
    1    7 N      1, 5
    2    6 C      2-4, 6, 7, 11-17
    3    8 O      8-10
    4   17 Cl     18, 19
    5    1 H      20-27

           -------------------------------------------------
          |                Calculation Setup                |
           -------------------------------------------------

          program call               : xtb K083.xyz --opt --namespace K083
          calculation namespace      : K083
          coordinate file            : K083.xyz
          omp threads                :                     8


           -------------------------------------------------
          |                 G F N 2 - x T B                 |
           -------------------------------------------------

        Reference                      10.1021/acs.jctc.8b01176
      * Hamiltonian:
        H0-scaling (s, p, d)           1.850000    2.230000    2.230000
        zeta-weighting                 0.500000
      * Dispersion:
        s8                             2.700000
        a1                             0.520000
        a2                             5.000000
        s9                             5.000000
      * Repulsion:
        kExp                           1.500000    1.000000
        rExp                           1.000000
      * Coulomb:
        alpha                          2.000000
        third order                    shell-resolved
        anisotropic                    true
        a3                             3.000000
        a5                             4.000000
        cn-shift                       1.200000
        cn-exp                         4.000000
        max-rad                        5.000000


          ...................................................
          :                      SETUP                      :
          :.................................................:
          :  # basis functions                  96          :
          :  # atomic orbitals                  94          :
          :  # shells                           48          :
          :  # electrons                        98          :
          :  max. iterations                   250          :
          :  Hamiltonian                  GFN2-xTB          :
          :  restarted?                      false          :
          :  GBSA solvation                  false          :
          :  PC potential                    false          :
          :  electronic temp.          300.0000000     K    :
          :  accuracy                    1.0000000          :
          :  -> integral cutoff          0.2500000E+02      :
          :  -> integral neglect         0.1000000E-07      :
          :  -> SCF convergence          0.1000000E-05 Eh   :
          :  -> wf. convergence          0.1000000E-03 e    :
          :  Broyden damping             0.4000000          :
          :  net charge                          0          :
          :  unpaired electrons                  0          :
          ...................................................

 iter      E             dE          RMSdq      gap      omega  full diag
   1    -57.4263850 -0.574264E+02  0.520E+00    2.25       0.0  T
   2    -57.4895434 -0.631583E-01  0.311E+00    2.25       1.0  T
   3    -57.4860277  0.351563E-02  0.151E+00    1.96       1.0  T
   4    -57.5039092 -0.178814E-01  0.380E-01    1.95       1.0  T
   5    -57.5066163 -0.270715E-02  0.128E-01    1.92       1.0  T
   6    -57.5068718 -0.255450E-03  0.631E-02    1.91       1.0  T
   7    -57.5068906 -0.187996E-04  0.392E-02    1.92       1.0  T
   8    -57.5069064 -0.158011E-04  0.246E-02    1.92       1.0  T
   9    -57.5069105 -0.408265E-05  0.168E-02    1.92       1.1  T
  10    -57.5069127 -0.221482E-05  0.911E-03    1.92       2.1  T
  11    -57.5069137 -0.102143E-05  0.453E-03    1.92       4.2  T
  12    -57.5069138 -0.141637E-06  0.174E-03    1.92      11.1  T
  13    -57.5069139 -0.349265E-07  0.867E-04    1.92      22.2  T
  14    -57.5069139 -0.513155E-08  0.488E-04    1.92      39.5  T

   *** convergence criteria satisfied after 14 iterations ***

         #    Occupation            Energy/Eh            Energy/eV
      -------------------------------------------------------------
         1        2.0000           -1.0703150             -29.1248
       ...           ...                  ...                  ...
        43        2.0000           -0.4433157             -12.0632
        44        2.0000           -0.4364289             -11.8758
        45        2.0000           -0.4344586             -11.8222
        46        2.0000           -0.4333752             -11.7927
        47        2.0000           -0.4266753             -11.6104
        48        2.0000           -0.4107733             -11.1777
        49        2.0000           -0.3895426             -10.6000 (HOMO)
        50                         -0.3190539              -8.6819 (LUMO)
        51                         -0.2904710              -7.9041
        52                         -0.2670488              -7.2668
        53                         -0.2590589              -7.0494
        54                         -0.2405438              -6.5455
       ...                                ...                  ...
        94                          0.6078245              16.5397
      -------------------------------------------------------------
                  HL-Gap            0.0704887 Eh            1.9181 eV
             Fermi-level           -0.3542982 Eh           -9.6409 eV

 SCC (total)                   0 d,  0 h,  0 min,  0.039 sec
 SCC setup                      ...        0 min,  0.000 sec (  0.446%)
 Dispersion                     ...        0 min,  0.000 sec (  0.681%)
 classical contributions        ...        0 min,  0.000 sec (  0.127%)
 integral evaluation            ...        0 min,  0.003 sec (  7.709%)
 iterations                     ...        0 min,  0.029 sec ( 74.010%)
 molecular gradient             ...        0 min,  0.006 sec ( 16.691%)
 printout                       ...        0 min,  0.000 sec (  0.290%)

         :::::::::::::::::::::::::::::::::::::::::::::::::::::
         ::                     SUMMARY                     ::
         :::::::::::::::::::::::::::::::::::::::::::::::::::::
         :: total energy             -56.910666656453 Eh    ::
         :: gradient norm              0.086110451510 Eh/a0 ::
         :: HOMO-LUMO gap              1.918094693455 eV    ::
         ::.................................................::
         :: SCC energy               -57.506751531439 Eh    ::
         :: -> isotropic ES            0.084048007843 Eh    ::
         :: -> anisotropic ES          0.002639314870 Eh    ::
         :: -> anisotropic XC          0.022285989847 Eh    ::
         :: -> dispersion             -0.032867666033 Eh    ::
         :: repulsion energy           0.596084874986 Eh    ::
         :: add. restraining           0.000000000000 Eh    ::
         :: total charge              -0.000000000000 e     ::
         :::::::::::::::::::::::::::::::::::::::::::::::::::::

      ----------------------------------------------------------- 
     |                   =====================                   |
     |                        A N C O P T                        |
     |                   =====================                   |
     |               Approximate Normal Coordinate               |
     |                Rational Function Optimizer                |
      ----------------------------------------------------------- 
      ----------------------------------------------------------- 
     |                   =====================                   |
     |                        A N C O P T                        |
     |                   =====================                   |
     |               Approximate Normal Coordinate               |
     |                Rational Function Optimizer                |
      ----------------------------------------------------------- 

          ...................................................
          :                      SETUP                      :
          :.................................................:
          :   optimization level            normal          :
          :   max. optcycles                   200          :
          :   ANC micro-cycles                  20          :
          :   degrees of freedom                75          :
          :.................................................:
          :   RF solver                   davidson          :
          :   write xtbopt.log                true          :
          :   linear?                        false          :
          :   energy convergence         0.5000000E-05 Eh   :
          :   grad. convergence          0.1000000E-02 Eh/α :
          :   maxmium RF displ.          1.0000000          :
          :   Hlow (freq-cutoff)         0.1000000E-01      :
          :   Hmax (freq-cutoff)         5.0000000          :
          :   S6 in model hess.         20.0000000          :
          ...................................................

generating ANC from exact Hessian ...
Using Lindh-Hessian (1995)
 Shifting diagonal of input Hessian by    9.2060243389873904E-003
 Lowest  eigenvalues of input Hessian
    0.000000    0.000000    0.000000    0.000000    0.000000    0.000000
    0.010000    0.010411    0.010546    0.012328    0.013328    0.015234
    0.015721    0.016946    0.020383    0.023200    0.024767    0.028176
 Highest eigenvalues
    1.894249    1.936150    1.995989    2.114947    2.136965    2.317013


........................................................................
.............................. CYCLE    1 ..............................
........................................................................

 iter      E             dE          RMSdq      gap      omega  full diag
   1    -57.5069139 -0.575069E+02  0.248E-04    1.92       0.0  T
   2    -57.5069139 -0.256222E-09  0.198E-04    1.92      97.1  T
   3    -57.5069139 -0.133028E-09  0.157E-04    1.92     122.6  T
     SCC iter.                  ...        0 min,  0.012 sec
     gradient                   ...        0 min,  0.007 sec
 * total energy  :   -56.9106667 Eh     change       -0.1634092E-08 Eh
   gradient norm :     0.0861085 Eh/α   predicted     0.0000000E+00 (-100.00%)
   displ. norm   :     0.2090231 α      lambda       -0.1019975E-01
   maximum displ.:     0.0684306 α      in ANC's #17, #37, #18, ...

........................................................................
.............................. CYCLE    2 ..............................
........................................................................

 iter      E             dE          RMSdq      gap      omega  full diag
   1    -57.5442076 -0.575442E+02  0.196E-01    1.99       0.0  T
   2    -57.5442809 -0.733279E-04  0.125E-01    1.98       1.0  T
   3    -57.5442485  0.323991E-04  0.614E-02    1.98       1.0  T
   4    -57.5443090 -0.605420E-04  0.137E-02    1.98       1.4  T
   5    -57.5443113 -0.220817E-05  0.643E-03    1.98       3.0  T
   6    -57.5443115 -0.200315E-06  0.454E-03    1.98       4.2  T
   7    -57.5443116 -0.125872E-06  0.271E-03    1.98       7.1  T
   8    -57.5443116 -0.691244E-07  0.170E-03    1.98      11.3  T
   9    -57.5443117 -0.240492E-07  0.648E-04    1.98      29.7  T
  10    -57.5443117 -0.223430E-08  0.441E-04    1.98      43.6  T
     SCC iter.                  ...        0 min,  0.021 sec
     gradient                   ...        0 min,  0.004 sec
 * total energy  :   -56.9174087 Eh     change       -0.6741996E-02 Eh
   gradient norm :     0.0316072 Eh/α   predicted    -0.5323558E-02 ( -21.04%)
   displ. norm   :     0.2074493 α      lambda       -0.2776840E-02
   maximum displ.:     0.0687284 α      in ANC's #7, #5, #3, ...

........................................................................
.............................. CYCLE    3 ..............................
........................................................................

 iter      E             dE          RMSdq      gap      omega  full diag
   1    -57.5603794 -0.575604E+02  0.125E-01    2.01       0.0  T
   2    -57.5604047 -0.252929E-04  0.794E-02    2.01       1.0  T
   3    -57.5603891  0.156160E-04  0.422E-02    2.01       1.0  T
   4    -57.5604190 -0.299315E-04  0.839E-03    2.01       2.3  T
   5    -57.5604197 -0.642985E-06  0.481E-03    2.01       4.0  T
   6    -57.5604198 -0.903419E-07  0.321E-03    2.01       6.0  T
   7    -57.5604198 -0.532677E-07  0.192E-03    2.01      10.0  T
   8    -57.5604198 -0.381588E-07  0.114E-03    2.01      16.9  T
   9    -57.5604199 -0.101074E-07  0.449E-04    2.01      42.8  T
  10    -57.5604199 -0.101617E-08  0.294E-04    2.01      65.5  T
     SCC iter.                  ...        0 min,  0.012 sec
     gradient                   ...        0 min,  0.004 sec
 * total energy  :   -56.9189822 Eh     change       -0.1573558E-02 Eh
   gradient norm :     0.0116882 Eh/α   predicted    -0.1450096E-02 (  -7.85%)
   displ. norm   :     0.1950992 α      lambda       -0.7073600E-03
   maximum displ.:     0.1015043 α      in ANC's #3, #5, #7, ...

........................................................................
.............................. CYCLE    4 ..............................
........................................................................

 iter      E             dE          RMSdq      gap      omega  full diag
   1    -57.5591823 -0.575592E+02  0.906E-02    2.01       0.0  T
   2    -57.5591860 -0.369518E-05  0.534E-02    2.01       1.0  T
   3    -57.5591817  0.429509E-05  0.143E-02    2.02       1.3  T
   4    -57.5591870 -0.526025E-05  0.364E-03    2.01       5.3  T
   5    -57.5591872 -0.213491E-06  0.208E-03    2.01       9.2  T
   6    -57.5591872 -0.320405E-07  0.124E-03    2.01      15.5  T
   7    -57.5591873 -0.891931E-08  0.608E-04    2.01      31.6  T
   8    -57.5591873 -0.305656E-08  0.431E-04    2.01      44.7  T
     SCC iter.                  ...        0 min,  0.009 sec
     gradient                   ...        0 min,  0.004 sec
 * total energy  :   -56.9195249 Eh     change       -0.5427239E-03 Eh
   gradient norm :     0.0094868 Eh/α   predicted    -0.3671875E-03 ( -32.34%)
   displ. norm   :     0.3881120 α      lambda       -0.9202663E-03
   maximum displ.:     0.2066957 α      in ANC's #3, #5, #7, ...

........................................................................
.............................. CYCLE    5 ..............................
........................................................................

 iter      E             dE          RMSdq      gap      omega  full diag
   1    -57.5541839 -0.575542E+02  0.163E-01    2.02       0.0  T
   2    -57.5541970 -0.130384E-04  0.963E-02    2.02       1.0  T
   3    -57.5541750  0.220118E-04  0.307E-02    2.02       1.0  T
   4    -57.5542015 -0.265347E-04  0.607E-03    2.02       3.2  T
   5    -57.5542020 -0.519705E-06  0.341E-03    2.02       5.6  T
   6    -57.5542021 -0.909759E-07  0.203E-03    2.02       9.5  T
   7    -57.5542021 -0.244567E-07  0.102E-03    2.02      18.9  T
   8    -57.5542021 -0.112816E-07  0.725E-04    2.02      26.5  T
   9    -57.5542021 -0.490564E-08  0.452E-04    2.02      42.5  T
     SCC iter.                  ...        0 min,  0.011 sec
     gradient                   ...        0 min,  0.004 sec
 * total energy  :   -56.9201827 Eh     change       -0.6577956E-03 Eh
   gradient norm :     0.0116661 Eh/α   predicted    -0.5294676E-03 ( -19.51%)
   displ. norm   :     0.3567547 α      lambda       -0.6050371E-03
   maximum displ.:     0.1992117 α      in ANC's #3, #5, #7, ...

........................................................................
.............................. CYCLE    6 ..............................
........................................................................

 iter      E             dE          RMSdq      gap      omega  full diag
   1    -57.5519101 -0.575519E+02  0.145E-01    2.03       0.0  T
   2    -57.5519189 -0.880546E-05  0.861E-02    2.03       1.0  T
   3    -57.5518978  0.211323E-04  0.294E-02    2.03       1.0  T
   4    -57.5519230 -0.252854E-04  0.477E-03    2.03       4.0  T
   5    -57.5519233 -0.210274E-06  0.290E-03    2.03       6.6  T
   6    -57.5519233 -0.744896E-07  0.175E-03    2.03      11.0  T
   7    -57.5519234 -0.210174E-07  0.955E-04    2.03      20.1  T
   8    -57.5519234 -0.892715E-08  0.726E-04    2.03      26.5  T
     SCC iter.                  ...        0 min,  0.010 sec
     gradient                   ...        0 min,  0.004 sec
 * total energy  :   -56.9206413 Eh     change       -0.4585234E-03 Eh
   gradient norm :     0.0130886 Eh/α   predicted    -0.3410483E-03 ( -25.62%)
   displ. norm   :     0.3606155 α      lambda       -0.6602042E-03
   maximum displ.:     0.2089753 α      in ANC's #3, #5, #2, ...

........................................................................
.............................. CYCLE    7 ..............................
........................................................................

 iter      E             dE          RMSdq      gap      omega  full diag
   1    -57.5533367 -0.575533E+02  0.153E-01    2.04       0.0  T
   2    -57.5533458 -0.914246E-05  0.901E-02    2.04       1.0  T
   3    -57.5533249  0.209282E-04  0.295E-02    2.04       1.0  T
   4    -57.5533500 -0.251184E-04  0.519E-03    2.04       3.7  T
   5    -57.5533503 -0.229395E-06  0.330E-03    2.04       5.8  T
   6    -57.5533503 -0.743816E-07  0.219E-03    2.04       8.8  T
   7    -57.5533504 -0.431372E-07  0.127E-03    2.04      15.2  T
   8    -57.5533504 -0.125125E-07  0.973E-04    2.04      19.8  T
   9    -57.5533504 -0.109768E-07  0.581E-04    2.04      33.1  T
     SCC iter.                  ...        0 min,  0.013 sec
     gradient                   ...        0 min,  0.004 sec
 * total energy  :   -56.9211415 Eh     change       -0.5002167E-03 Eh
   gradient norm :     0.0112344 Eh/α   predicted    -0.3730356E-03 ( -25.43%)
   displ. norm   :     0.3573130 α      lambda       -0.5945170E-03
   maximum displ.:     0.2033947 α      in ANC's #3, #2, #5, ...

........................................................................
.............................. CYCLE    8 ..............................
........................................................................

 iter      E             dE          RMSdq      gap      omega  full diag
   1    -57.5564108 -0.575564E+02  0.161E-01    2.05       0.0  T
   2    -57.5564177 -0.694157E-05  0.950E-02    2.05       1.0  T
   3    -57.5564018  0.159131E-04  0.255E-02    2.06       1.0  T
   4    -57.5564211 -0.193528E-04  0.512E-03    2.06       3.8  T
   5    -57.5564213 -0.138404E-06  0.333E-03    2.06       5.8  T
   6    -57.5564214 -0.647218E-07  0.218E-03    2.06       8.8  T
   7    -57.5564214 -0.500311E-07  0.127E-03    2.06      15.2  T
   8    -57.5564214 -0.115792E-07  0.896E-04    2.06      21.5  T
   9    -57.5564214 -0.789458E-08  0.528E-04    2.06      36.4  T
     SCC iter.                  ...        0 min,  0.011 sec
     gradient                   ...        0 min,  0.005 sec
 * total energy  :   -56.9215814 Eh     change       -0.4398825E-03 Eh
   gradient norm :     0.0092285 Eh/α   predicted    -0.3352138E-03 ( -23.79%)
   displ. norm   :     0.3079962 α      lambda       -0.4226315E-03
   maximum displ.:     0.1631611 α      in ANC's #3, #2, #6, ...

........................................................................
.............................. CYCLE    9 ..............................
........................................................................

 iter      E             dE          RMSdq      gap      omega  full diag
   1    -57.5593283 -0.575593E+02  0.144E-01    2.06       0.0  T
   2    -57.5593323 -0.405150E-05  0.849E-02    2.06       1.0  T
   3    -57.5593237  0.862400E-05  0.187E-02    2.06       1.0  T
   4    -57.5593343 -0.106319E-04  0.399E-03    2.06       4.8  T
   5    -57.5593344 -0.641064E-07  0.256E-03    2.06       7.5  T
   6    -57.5593344 -0.366307E-07  0.163E-03    2.06      11.8  T
   7    -57.5593345 -0.283357E-07  0.960E-04    2.06      20.0  T
   8    -57.5593345 -0.638070E-08  0.673E-04    2.06      28.6  T
     SCC iter.                  ...        0 min,  0.010 sec
     gradient                   ...        0 min,  0.004 sec
 * total energy  :   -56.9218855 Eh     change       -0.3041885E-03 Eh
   gradient norm :     0.0067613 Eh/α   predicted    -0.2313737E-03 ( -23.94%)
   displ. norm   :     0.3084863 α      lambda       -0.2745778E-03
   maximum displ.:     0.1598669 α      in ANC's #2, #3, #6, ...

........................................................................
.............................. CYCLE   10 ..............................
........................................................................

 iter      E             dE          RMSdq      gap      omega  full diag
   1    -57.5580474 -0.575580E+02  0.151E-01    2.07       0.0  T
   2    -57.5580518 -0.442009E-05  0.888E-02    2.07       1.0  T
   3    -57.5580448  0.702876E-05  0.170E-02    2.07       1.1  T
   4    -57.5580536 -0.879197E-05  0.390E-03    2.07       4.9  T
   5    -57.5580537 -0.113156E-06  0.241E-03    2.07       8.0  T
   6    -57.5580537 -0.138270E-07  0.148E-03    2.07      13.0  T
   7    -57.5580537 -0.290608E-07  0.882E-04    2.07      21.8  T
   8    -57.5580537 -0.599430E-08  0.668E-04    2.07      28.8  T
     SCC iter.                  ...        0 min,  0.009 sec
     gradient                   ...        0 min,  0.005 sec
 * total energy  :   -56.9220597 Eh     change       -0.1741900E-03 Eh
   gradient norm :     0.0098004 Eh/α   predicted    -0.1503586E-03 ( -13.68%)
   displ. norm   :     0.2713091 α      lambda       -0.3842546E-03
   maximum displ.:     0.1765014 α      in ANC's #2, #6, #3, ...

........................................................................
.............................. CYCLE   11 ..............................
........................................................................

 iter      E             dE          RMSdq      gap      omega  full diag
   1    -57.5641576 -0.575642E+02  0.124E-01    2.08       0.0  T
   2    -57.5641648 -0.720909E-05  0.736E-02    2.08       1.0  T
   3    -57.5641605  0.430512E-05  0.175E-02    2.08       1.1  T
   4    -57.5641668 -0.631460E-05  0.483E-03    2.08       4.0  T
   5    -57.5641669 -0.140018E-06  0.358E-03    2.08       5.4  T
   6    -57.5641670 -0.952703E-07  0.253E-03    2.08       7.6  T
   7    -57.5641671 -0.667748E-07  0.170E-03    2.08      11.3  T
   8    -57.5641671 -0.258955E-07  0.129E-03    2.08      14.9  T
   9    -57.5641672 -0.301214E-07  0.536E-04    2.08      35.9  T
  10    -57.5641672 -0.304177E-08  0.298E-04    2.08      64.5  T
     SCC iter.                  ...        0 min,  0.012 sec
     gradient                   ...        0 min,  0.004 sec
 * total energy  :   -56.9221064 Eh     change       -0.4670471E-04 Eh
   gradient norm :     0.0127711 Eh/α   predicted    -0.2063174E-03 ( 341.75%)
   displ. norm   :     0.1664284 α      lambda       -0.3007958E-03
   maximum displ.:     0.0835577 α      in ANC's #2, #6, #5, ...

........................................................................
.............................. CYCLE   12 ..............................
........................................................................

 iter      E             dE          RMSdq      gap      omega  full diag
   1    -57.5588954 -0.575589E+02  0.752E-02    2.08       0.0  T
   2    -57.5588974 -0.196878E-05  0.444E-02    2.08       1.0  T
   3    -57.5588947  0.263920E-05  0.115E-02    2.08       1.7  T
   4    -57.5588981 -0.338096E-05  0.271E-03    2.08       7.1  T
   5    -57.5588981 -0.496219E-07  0.177E-03    2.08      10.9  T
   6    -57.5588982 -0.105281E-07  0.114E-03    2.08      16.9  T
   7    -57.5588982 -0.138290E-07  0.799E-04    2.08      24.1  T
   8    -57.5588982 -0.508724E-08  0.636E-04    2.08      30.3  T
     SCC iter.                  ...        0 min,  0.009 sec
     gradient                   ...        0 min,  0.004 sec
 * total energy  :   -56.9222596 Eh     change       -0.1531764E-03 Eh
   gradient norm :     0.0074519 Eh/α   predicted    -0.1545792E-03 (   0.92%)
   displ. norm   :     0.0764587 α      lambda       -0.1708185E-03
   maximum displ.:     0.0361877 α      in ANC's #1, #3, #10, ...

........................................................................
.............................. CYCLE   13 ..............................
........................................................................

 iter      E             dE          RMSdq      gap      omega  full diag
   1    -57.5577837 -0.575578E+02  0.497E-02    2.08       0.0  T
   2    -57.5577906 -0.689776E-05  0.295E-02    2.08       1.0  T
   3    -57.5577904  0.211443E-06  0.102E-02    2.08       1.9  T
   4    -57.5577908 -0.479418E-06  0.311E-03    2.08       6.2  T
   5    -57.5577910 -0.198662E-06  0.155E-03    2.08      12.4  T
   6    -57.5577911 -0.134329E-07  0.118E-03    2.08      16.3  T
   7    -57.5577911 -0.135905E-07  0.694E-04    2.08      27.7  T
   8    -57.5577911 -0.333176E-08  0.520E-04    2.08      37.0  T
     SCC iter.                  ...        0 min,  0.010 sec
     gradient                   ...        0 min,  0.004 sec
 * total energy  :   -56.9222807 Eh     change       -0.2111004E-04 Eh
   gradient norm :     0.0131086 Eh/α   predicted    -0.8592330E-04 ( 307.03%)
   displ. norm   :     0.0533895 α      lambda       -0.1380897E-03
   maximum displ.:     0.0332715 α      in ANC's #2, #6, #8, ...

........................................................................
.............................. CYCLE   14 ..............................
........................................................................

 iter      E             dE          RMSdq      gap      omega  full diag
   1    -57.5589519 -0.575590E+02  0.264E-02    2.08       0.0  T
   2    -57.5589542 -0.237009E-05  0.159E-02    2.08       1.2  T
   3    -57.5589542  0.136429E-07  0.734E-03    2.08       2.6  T
   4    -57.5589546 -0.350400E-06  0.129E-03    2.08      15.0  T
   5    -57.5589546 -0.947884E-08  0.832E-04    2.08      23.1  T
   6    -57.5589546 -0.848029E-08  0.542E-04    2.08      35.5  T
     SCC iter.                  ...        0 min,  0.007 sec
     gradient                   ...        0 min,  0.004 sec
 * total energy  :   -56.9223697 Eh     change       -0.8895399E-04 Eh
   gradient norm :     0.0037721 Eh/α   predicted    -0.6924240E-04 ( -22.16%)
   displ. norm   :     0.1347166 α      lambda       -0.6278642E-04
   maximum displ.:     0.0986159 α      in ANC's #2, #6, #5, ...

........................................................................
.............................. CYCLE   15 ..............................
........................................................................

 iter      E             dE          RMSdq      gap      omega  full diag
   1    -57.5589979 -0.575590E+02  0.507E-02    2.09       0.0  T
   2    -57.5589986 -0.700899E-06  0.297E-02    2.09       1.0  T
   3    -57.5589980  0.608241E-06  0.519E-03    2.09       3.7  T
   4    -57.5589988 -0.760992E-06  0.145E-03    2.09      13.2  T
   5    -57.5589988 -0.350344E-07  0.804E-04    2.09      23.9  T
   6    -57.5589988 -0.525203E-08  0.490E-04    2.09      39.3  T
     SCC iter.                  ...        0 min,  0.007 sec
     gradient                   ...        0 min,  0.004 sec
 * total energy  :   -56.9224164 Eh     change       -0.4672363E-04 Eh
   gradient norm :     0.0033440 Eh/α   predicted    -0.3196669E-04 ( -31.58%)
   displ. norm   :     0.1686006 α      lambda       -0.6910881E-04
   maximum displ.:     0.1282749 α      in ANC's #2, #6, #1, ...

........................................................................
.............................. CYCLE   16 ..............................
........................................................................

 iter      E             dE          RMSdq      gap      omega  full diag
   1    -57.5592623 -0.575593E+02  0.620E-02    2.09       0.0  T
   2    -57.5592635 -0.114816E-05  0.365E-02    2.09       1.0  T
   3    -57.5592617  0.180726E-05  0.932E-03    2.09       2.1  T
   4    -57.5592639 -0.221044E-05  0.196E-03    2.09       9.8  T
   5    -57.5592639 -0.599475E-07  0.105E-03    2.09      18.3  T
   6    -57.5592639 -0.850375E-08  0.557E-04    2.09      34.5  T
   7    -57.5592639 -0.165905E-08  0.375E-04    2.09      51.3  T
     SCC iter.                  ...        0 min,  0.008 sec
     gradient                   ...        0 min,  0.004 sec
 * total energy  :   -56.9224698 Eh     change       -0.5342707E-04 Eh
   gradient norm :     0.0039372 Eh/α   predicted    -0.3553964E-04 ( -33.48%)
   displ. norm   :     0.2740185 α      lambda       -0.9098935E-04
   maximum displ.:     0.2080702 α      in ANC's #2, #6, #1, ...

........................................................................
.............................. CYCLE   17 ..............................
........................................................................

 iter      E             dE          RMSdq      gap      omega  full diag
   1    -57.5586210 -0.575586E+02  0.107E-01    2.09       0.0  T
   2    -57.5586225 -0.143916E-05  0.629E-02    2.09       1.0  T
   3    -57.5586177  0.475072E-05  0.146E-02    2.09       1.3  T
   4    -57.5586234 -0.573528E-05  0.239E-03    2.09       8.0  T
   5    -57.5586235 -0.226963E-07  0.143E-03    2.09      13.5  T
   6    -57.5586235 -0.207495E-07  0.651E-04    2.09      29.6  T
   7    -57.5586235 -0.335524E-08  0.384E-04    2.09      50.2  T
     SCC iter.                  ...        0 min,  0.008 sec
     gradient                   ...        0 min,  0.004 sec
 * total energy  :   -56.9225356 Eh     change       -0.6573995E-04 Eh
   gradient norm :     0.0041863 Eh/α   predicted    -0.4891673E-04 ( -25.59%)
   displ. norm   :     0.2632222 α      lambda       -0.9187972E-04
   maximum displ.:     0.2023873 α      in ANC's #2, #6, #1, ...

........................................................................
.............................. CYCLE   18 ..............................
........................................................................

 iter      E             dE          RMSdq      gap      omega  full diag
   1    -57.5588339 -0.575588E+02  0.103E-01    2.10       0.0  T
   2    -57.5588366 -0.265942E-05  0.606E-02    2.10       1.0  T
   3    -57.5588304  0.617080E-05  0.178E-02    2.10       1.1  T
   4    -57.5588378 -0.743967E-05  0.278E-03    2.10       6.9  T
   5    -57.5588379 -0.776552E-07  0.155E-03    2.10      12.4  T
   6    -57.5588379 -0.175087E-07  0.820E-04    2.10      23.5  T
   7    -57.5588379 -0.454215E-08  0.492E-04    2.10      39.1  T
     SCC iter.                  ...        0 min,  0.008 sec
     gradient                   ...        0 min,  0.004 sec
 * total energy  :   -56.9226012 Eh     change       -0.6565894E-04 Eh
   gradient norm :     0.0035759 Eh/α   predicted    -0.4912419E-04 ( -25.18%)
   displ. norm   :     0.2289032 α      lambda       -0.7677620E-04
   maximum displ.:     0.1628262 α      in ANC's #2, #1, #7, ...

........................................................................
.............................. CYCLE   19 ..............................
........................................................................

 iter      E             dE          RMSdq      gap      omega  full diag
   1    -57.5593251 -0.575593E+02  0.926E-02    2.10       0.0  T
   2    -57.5593269 -0.177263E-05  0.542E-02    2.10       1.0  T
   3    -57.5593224  0.451584E-05  0.153E-02    2.10       1.3  T
   4    -57.5593279 -0.548898E-05  0.242E-03    2.10       7.9  T
   5    -57.5593279 -0.270146E-07  0.133E-03    2.10      14.5  T
   6    -57.5593279 -0.116254E-07  0.744E-04    2.10      25.9  T
   7    -57.5593279 -0.609690E-08  0.413E-04    2.10      46.6  T
     SCC iter.                  ...        0 min,  0.008 sec
     gradient                   ...        0 min,  0.004 sec
 * total energy  :   -56.9226581 Eh     change       -0.5683831E-04 Eh
   gradient norm :     0.0028104 Eh/α   predicted    -0.4040320E-04 ( -28.92%)
   displ. norm   :     0.1851215 α      lambda       -0.7006604E-04
   maximum displ.:     0.1089465 α      in ANC's #2, #4, #7, ...

........................................................................
.............................. CYCLE   20 ..............................
........................................................................

 iter      E             dE          RMSdq      gap      omega  full diag
   1    -57.5605270 -0.575605E+02  0.762E-02    2.09       0.0  T
   2    -57.5605288 -0.177239E-05  0.448E-02    2.09       1.0  T
   3    -57.5605258  0.292876E-05  0.130E-02    2.09       1.5  T
   4    -57.5605295 -0.366199E-05  0.242E-03    2.09       8.0  T
   5    -57.5605295 -0.442996E-07  0.126E-03    2.09      15.3  T
   6    -57.5605295 -0.145185E-07  0.518E-04    2.09      37.1  T
   7    -57.5605295 -0.168355E-08  0.253E-04    2.09      76.1  T
     SCC iter.                  ...        0 min,  0.008 sec
     gradient                   ...        0 min,  0.004 sec
 * total energy  :   -56.9227006 Eh     change       -0.4251593E-04 Eh
   gradient norm :     0.0025450 Eh/α   predicted    -0.3623416E-04 ( -14.78%)
   displ. norm   :     0.2344222 α      lambda       -0.4768642E-04
   maximum displ.:     0.1467896 α      in ANC's #2, #4, #7, ...
 * RMSD in coord.:     0.7050640 α      energy gain  -0.1203393E-01 Eh

generating ANC from exact Hessian ...
Using Lindh-Hessian (1995)
 Shifting diagonal of input Hessian by    9.1514550374513955E-003
 Lowest  eigenvalues of input Hessian
    0.000000    0.000000    0.000000    0.000000    0.000000    0.000000
    0.010000    0.010481    0.010781    0.012168    0.013368    0.014270
    0.015731    0.017652    0.021279    0.024425    0.025221    0.029409
 Highest eigenvalues
    1.922738    2.002484    2.059253    2.180422    2.243559    2.405557


........................................................................
.............................. CYCLE   21 ..............................
........................................................................

 iter      E             dE          RMSdq      gap      omega  full diag
   1    -57.5580887 -0.575581E+02  0.984E-02    2.09       0.0  T
   2    -57.5580911 -0.235348E-05  0.577E-02    2.09       1.0  T
   3    -57.5580879  0.312885E-05  0.137E-02    2.09       1.4  T
   4    -57.5580920 -0.402821E-05  0.297E-03    2.09       6.5  T
   5    -57.5580920 -0.752708E-07  0.166E-03    2.09      11.6  T
   6    -57.5580921 -0.139569E-07  0.778E-04    2.09      24.7  T
   7    -57.5580921 -0.572067E-08  0.467E-04    2.09      41.2  T
     SCC iter.                  ...        0 min,  0.008 sec
     gradient                   ...        0 min,  0.004 sec
 * total energy  :   -56.9227035 Eh     change       -0.2952418E-05 Eh
   gradient norm :     0.0054659 Eh/α   predicted     0.0000000E+00 (-100.00%)
   displ. norm   :     0.0336304 α      lambda       -0.4092592E-04
   maximum displ.:     0.0223426 α      in ANC's #4, #3, #2, ...

........................................................................
.............................. CYCLE   22 ..............................
........................................................................

 iter      E             dE          RMSdq      gap      omega  full diag
   1    -57.5598253 -0.575598E+02  0.170E-02    2.09       0.0  T
   2    -57.5598258 -0.455179E-06  0.100E-02    2.09       1.9  T
   3    -57.5598257  0.616873E-07  0.307E-03    2.09       6.3  T
   4    -57.5598258 -0.996206E-07  0.106E-03    2.09      18.2  T
   5    -57.5598258 -0.188070E-07  0.605E-04    2.09      31.8  T
   6    -57.5598258 -0.178241E-08  0.444E-04    2.09      43.4  T
     SCC iter.                  ...        0 min,  0.007 sec
     gradient                   ...        0 min,  0.004 sec
 * total energy  :   -56.9227390 Eh     change       -0.3542962E-04 Eh
   gradient norm :     0.0013773 Eh/α   predicted    -0.2663372E-04 ( -24.83%)
   displ. norm   :     0.0717997 α      lambda       -0.2092428E-04
   maximum displ.:     0.0493397 α      in ANC's #4, #3, #2, ...

........................................................................
.............................. CYCLE   23 ..............................
........................................................................

 iter      E             dE          RMSdq      gap      omega  full diag
   1    -57.5609963 -0.575610E+02  0.275E-02    2.09       0.0  T
   2    -57.5609966 -0.312630E-06  0.163E-02    2.09       1.2  T
   3    -57.5609962  0.343439E-06  0.420E-03    2.09       4.6  T
   4    -57.5609967 -0.448420E-06  0.120E-03    2.09      16.1  T
   5    -57.5609967 -0.111096E-07  0.806E-04    2.09      23.9  T
   6    -57.5609967 -0.363697E-08  0.509E-04    2.09      37.8  T
     SCC iter.                  ...        0 min,  0.008 sec
     gradient                   ...        0 min,  0.004 sec
 * total energy  :   -56.9227580 Eh     change       -0.1904226E-04 Eh
   gradient norm :     0.0021380 Eh/α   predicted    -0.1049693E-04 ( -44.88%)
   displ. norm   :     0.0462899 α      lambda       -0.1340633E-04
   maximum displ.:     0.0314998 α      in ANC's #4, #3, #2, ...

........................................................................
.............................. CYCLE   24 ..............................
........................................................................

 iter      E             dE          RMSdq      gap      omega  full diag
   1    -57.5608256 -0.575608E+02  0.160E-02    2.09       0.0  T
   2    -57.5608256 -0.808025E-07  0.947E-03    2.09       2.0  T
   3    -57.5608255  0.154260E-06  0.280E-03    2.09       6.9  T
   4    -57.5608257 -0.195028E-06  0.613E-04    2.09      31.4  T
   5    -57.5608257 -0.157421E-08  0.427E-04    2.09      45.1  T
     SCC iter.                  ...        0 min,  0.006 sec
     gradient                   ...        0 min,  0.004 sec
 * total energy  :   -56.9227702 Eh     change       -0.1214712E-04 Eh
   gradient norm :     0.0018068 Eh/α   predicted    -0.6718606E-05 ( -44.69%)
   displ. norm   :     0.1482984 α      lambda       -0.2611989E-04
   maximum displ.:     0.0962922 α      in ANC's #4, #3, #2, ...

........................................................................
.............................. CYCLE   25 ..............................
........................................................................

 iter      E             dE          RMSdq      gap      omega  full diag
   1    -57.5598224 -0.575598E+02  0.506E-02    2.09       0.0  T
   2    -57.5598234 -0.944378E-06  0.299E-02    2.09       1.0  T
   3    -57.5598216  0.176933E-05  0.975E-03    2.09       2.0  T
   4    -57.5598238 -0.220537E-05  0.165E-03    2.09      11.7  T
   5    -57.5598238 -0.130080E-07  0.100E-03    2.09      19.2  T
   6    -57.5598238 -0.560167E-08  0.619E-04    2.09      31.1  T
   7    -57.5598238 -0.386324E-08  0.385E-04    2.09      49.9  T
     SCC iter.                  ...        0 min,  0.008 sec
     gradient                   ...        0 min,  0.004 sec
 * total energy  :   -56.9227953 Eh     change       -0.2519224E-04 Eh
   gradient norm :     0.0012296 Eh/α   predicted    -0.1324992E-04 ( -47.40%)
   displ. norm   :     0.0747248 α      lambda       -0.7204516E-05
   maximum displ.:     0.0514905 α      in ANC's #4, #3, #2, ...

........................................................................
.............................. CYCLE   26 ..............................
........................................................................

 iter      E             dE          RMSdq      gap      omega  full diag
   1    -57.5598371 -0.575598E+02  0.253E-02    2.09       0.0  T
   2    -57.5598373 -0.203773E-06  0.149E-02    2.09       1.3  T
   3    -57.5598369  0.354804E-06  0.429E-03    2.09       4.5  T
   4    -57.5598374 -0.443582E-06  0.830E-04    2.09      23.2  T
   5    -57.5598374 -0.311055E-08  0.490E-04    2.09      39.2  T
     SCC iter.                  ...        0 min,  0.006 sec
     gradient                   ...        0 min,  0.004 sec
 * total energy  :   -56.9228030 Eh     change       -0.7681359E-05 Eh
   gradient norm :     0.0011003 Eh/α   predicted    -0.3627022E-05 ( -52.78%)
   displ. norm   :     0.0557613 α      lambda       -0.5200618E-05
   maximum displ.:     0.0400103 α      in ANC's #4, #3, #7, ...

........................................................................
.............................. CYCLE   27 ..............................
........................................................................

 iter      E             dE          RMSdq      gap      omega  full diag
   1    -57.5601294 -0.575601E+02  0.214E-02    2.09       0.0  T
   2    -57.5601296 -0.139361E-06  0.126E-02    2.09       1.5  T
   3    -57.5601294  0.203001E-06  0.334E-03    2.09       5.8  T
   4    -57.5601296 -0.259357E-06  0.707E-04    2.09      27.2  T
   5    -57.5601296 -0.211458E-08  0.391E-04    2.09      49.3  T
     SCC iter.                  ...        0 min,  0.006 sec
     gradient                   ...        0 min,  0.004 sec
 * total energy  :   -56.9228082 Eh     change       -0.5198461E-05 Eh
   gradient norm :     0.0005416 Eh/α   predicted    -0.2605261E-05 ( -49.88%)
   displ. norm   :     0.0400951 α      lambda       -0.2904573E-05
   maximum displ.:     0.0305350 α      in ANC's #4, #7, #8, ...

........................................................................
.............................. CYCLE   28 ..............................
........................................................................

 iter      E             dE          RMSdq      gap      omega  full diag
   1    -57.5603377 -0.575603E+02  0.152E-02    2.09       0.0  T
   2    -57.5603377 -0.813325E-07  0.898E-03    2.09       2.1  T
   3    -57.5603377  0.487531E-07  0.177E-03    2.09      10.9  T
   4    -57.5603378 -0.709509E-07  0.561E-04    2.09      34.3  T
   5    -57.5603378 -0.305098E-08  0.318E-04    2.09      60.5  T
     SCC iter.                  ...        0 min,  0.006 sec
     gradient                   ...        0 min,  0.004 sec
 * total energy  :   -56.9228114 Eh     change       -0.3175191E-05 Eh
   gradient norm :     0.0003785 Eh/α   predicted    -0.1453822E-05 ( -54.21%)
   displ. norm   :     0.0410428 α      lambda       -0.2521224E-05
   maximum displ.:     0.0291406 α      in ANC's #4, #7, #8, ...

   *** GEOMETRY OPTIMIZATION CONVERGED AFTER 28 ITERATIONS ***

------------------------------------------------------------------------
 total energy gain   :        -0.0121447 Eh       -7.6209 kcal/mol
 total RMSD          :         0.6995535 a0        0.3702 Å
 total power (kW/mol):        -1.1387865 (step)  -70.2249 (real)
------------------------------------------------------------------------

 ANCopt (total)                0 d,  0 h,  0 min,  0.454 sec
 optimizer setup                ...        0 min,  0.000 sec (  0.025%)
 model hessian                  ...        0 min,  0.014 sec (  2.991%)
 ANC generation                 ...        0 min,  0.001 sec (  0.211%)
 coordinate transformation      ...        0 min,  0.000 sec (  0.069%)
 single point calculation       ...        0 min,  0.430 sec ( 94.601%)
 optimization log               ...        0 min,  0.005 sec (  1.003%)
 hessian update                 ...        0 min,  0.001 sec (  0.229%)
 rational function              ...        0 min,  0.003 sec (  0.595%)

================
 final structure:
================
27
 xtb: 6.7.1 (edcfbbe)
N            1.27855787564238        0.29994417600729        0.56546747788858
C            1.24550019840105       -0.95858101331241        0.12847320091709
C            0.01081650994565       -1.55975448721414       -0.18385189700815
C           -1.11391561228306       -0.73026223324701       -0.10741452770454
N           -1.04444414471065        0.53080837913645        0.29047242644697
C            0.15037385529954        0.97095892286741        0.63913691812770
C           -2.45995374693162       -1.26914941582465       -0.50980453344040
O           -3.08419731254391       -0.91427498237760       -1.46624145510544
O           -2.86900320180951       -2.21630902687159        0.33744486657898
O           -0.14658405911818       -2.85307811067660       -0.60136372063594
C            0.14328832982797       -3.84898134242009        0.36574444702329
C            2.54645384504699       -1.62719597000270       -0.00476735038448
C            3.58984480584769       -1.26294852777461        0.84601721113281
C            4.82622611106991       -1.86461196020589        0.73198505310246
C            5.04540043620097       -2.82993715558152       -0.24188785828471
C            4.01352661401119       -3.18168321382934       -1.11046156024794
C            2.77097064376027       -2.58329420072607       -0.99299342931765
Cl           4.27432821473534       -4.36256445062293       -2.33764889126460
Cl           6.58703369893860       -3.57982924829972       -0.37547625831553
H            0.20754558574148        1.98612914300225        1.00718631403356
H           -3.73213342923865       -2.56687582437611        0.06156200011998
H            1.15310788946258       -3.74492192657992        0.77148287425686
H           -0.58540328504213       -3.80684188026465        1.18112488343078
H            0.05427197081813       -4.79956370832212       -0.15533366531768
H            3.41250083574627       -0.50532820453252        1.59206258108537
H            5.63318623252672       -1.59149719446992        1.39313756787285
H            1.98778113865535       -2.85475654348278       -1.68320267498984

 Bond Distances (Angstroems)
 ---------------------------
N1-C2=1.3326         N1-C6=1.3147         C2-N1=1.3326         C2-C3=1.4083         C2-C12=1.4688        C3-C2=1.4083         
C3-C4=1.3996         C3-O10=1.3681        C4-C3=1.3996         C4-N5=1.3242         C4-C7=1.5047         N5-C4=1.3242         
N5-C6=1.3202         C6-N1=1.3147         C6-N5=1.3202         C6-H20=1.0813        C7-C4=1.5047         C7-O8=1.1960         
C7-O9=1.3350         O8-C7=1.1960         O9-C7=1.3350         O9-H21=0.9716        O10-C3=1.3681        O10-C11=1.4181       
C11-O10=1.4181       C11-H22=1.0932       C11-H23=1.0944       C11-H24=1.0877       C12-C2=1.4688        C12-C13=1.3947       
C12-C17=1.3932       C13-C12=1.3947       C13-C14=1.3797       C13-H25=1.0780       C14-C13=1.3797       C14-C15=1.3886       
C14-H26=1.0784       C15-C14=1.3886       C15-C16=1.3939       C15-Cl19=1.7195      C16-C15=1.3939       C16-C17=1.3841       
C16-Cl18=1.7229      C17-C12=1.3932       C17-C16=1.3841       C17-H27=1.0786       Cl18-C16=1.7229      Cl19-C15=1.7195      
H20-C6=1.0813        H21-O9=0.9716        H22-C11=1.0932       H23-C11=1.0944       H24-C11=1.0877       H25-C13=1.0780       
H26-C14=1.0784       H27-C17=1.0786       
 C  H  Rav=1.0845 sigma=0.0066  Rmin=1.0780  Rmax=1.0944     7
 C  C  Rav=1.4116 sigma=0.0391  Rmin=1.3797  Rmax=1.5047    10
 N  C  Rav=1.3229 sigma=0.0065  Rmin=1.3147  Rmax=1.3326     4
 O  H  Rav=0.9716 sigma=0.0000  Rmin=0.9716  Rmax=0.9716     1
 O  C  Rav=1.3293 sigma=0.0825  Rmin=1.1960  Rmax=1.4181     4
 Cl C  Rav=1.7212 sigma=0.0017  Rmin=1.7195  Rmax=1.7229     2

 selected bond angles (degree)
 --------------------
C6-N1-C2=118.63                C3-C2-N1=119.84                C12-C2-N1=115.96               C12-C2-C3=124.20               
C4-C3-C2=116.07                O10-C3-C2=124.89               O10-C3-C4=118.98               N5-C4-C3=122.59                
C7-C4-C3=119.47                C7-C4-N5=117.93                C6-N5-C4=116.38                N5-C6-N1=126.28                
H20-C6-N1=116.93               H20-C6-N5=116.79               O8-C7-C4=125.06                O9-C7-C4=111.01                
O9-C7-O8=123.93                H21-O9-C7=110.36               C11-O10-C3=115.61              

 selected dihedral angles (degree)
 ---------------------------------
C3-C2-N1-C6=357.10            C12-C2-N1-C6=176.56           C4-C3-C2-N1=  4.91            C4-C3-C2-C12=185.49           
O10-C3-C2-N1=182.02           O10-C3-C2-C12=  2.61          N5-C4-C3-C2=357.11            N5-C4-C3-O10=179.81           
C7-C4-C3-C2=176.11            C7-C4-C3-O10=358.82           C6-N5-C4-C3=358.88            C6-N5-C4-C7=179.86            
N5-C6-N1-C2=358.42            H20-C6-N1-C2=179.37           N1-C6-N5-C4=  3.61            H20-C6-N5-C4=182.66           
O8-C7-C4-C3=247.82            O8-C7-C4-N5= 66.88            O9-C7-C4-C3= 67.12            O9-C7-C4-N5=246.18            
H21-O9-C7-C4=180.85           H21-O9-C7-O8=  0.16           C11-O10-C3-C2= 67.93          C11-O10-C3-C4=244.97          
           -------------------------------------------------
          |                Final Singlepoint                |
           -------------------------------------------------

          ...................................................
          :                      SETUP                      :
          :.................................................:
          :  # basis functions                  96          :
          :  # atomic orbitals                  94          :
          :  # shells                           48          :
          :  # electrons                        98          :
          :  max. iterations                   250          :
          :  Hamiltonian                  GFN2-xTB          :
          :  restarted?                      false          :
          :  GBSA solvation                  false          :
          :  PC potential                    false          :
          :  electronic temp.          300.0000000     K    :
          :  accuracy                    1.0000000          :
          :  -> integral cutoff          0.2500000E+02      :
          :  -> integral neglect         0.1000000E-07      :
          :  -> SCF convergence          0.1000000E-05 Eh   :
          :  -> wf. convergence          0.1000000E-03 e    :
          :  Broyden damping             0.4000000          :
          :  net charge                          0          :
          :  unpaired electrons                  0          :
          ...................................................

 iter      E             dE          RMSdq      gap      omega  full diag
   1    -57.5603378 -0.575603E+02  0.184E-04    2.09       0.0  T
   2    -57.5603378 -0.168789E-09  0.144E-04    2.09     134.1  T
   3    -57.5603378 -0.157769E-09  0.115E-04    2.09     167.9  T

   *** convergence criteria satisfied after 3 iterations ***

         #    Occupation            Energy/Eh            Energy/eV
      -------------------------------------------------------------
         1        2.0000           -1.0713052             -29.1517
       ...           ...                  ...                  ...
        43        2.0000           -0.4372783             -11.8989
        44        2.0000           -0.4344276             -11.8214
        45        2.0000           -0.4333781             -11.7928
        46        2.0000           -0.4305576             -11.7161
        47        2.0000           -0.4265503             -11.6070
        48        2.0000           -0.4105187             -11.1708
        49        2.0000           -0.3837443             -10.4422 (HOMO)
        50                         -0.3071197              -8.3572 (LUMO)
        51                         -0.2826269              -7.6907
        52                         -0.2630243              -7.1573
        53                         -0.2516145              -6.8468
        54                         -0.2413387              -6.5672
       ...                                ...                  ...
        94                          0.6543550              17.8059
      -------------------------------------------------------------
                  HL-Gap            0.0766246 Eh            2.0851 eV
             Fermi-level           -0.3454320 Eh           -9.3997 eV

 SCC (total)                   0 d,  0 h,  0 min,  0.010 sec
 SCC setup                      ...        0 min,  0.000 sec (  1.493%)
 Dispersion                     ...        0 min,  0.000 sec (  1.144%)
 classical contributions        ...        0 min,  0.000 sec (  0.174%)
 integral evaluation            ...        0 min,  0.002 sec ( 16.444%)
 iterations                     ...        0 min,  0.004 sec ( 37.983%)
 molecular gradient             ...        0 min,  0.004 sec ( 41.619%)
 printout                       ...        0 min,  0.000 sec (  0.988%)

         :::::::::::::::::::::::::::::::::::::::::::::::::::::
         ::                     SUMMARY                     ::
         :::::::::::::::::::::::::::::::::::::::::::::::::::::
         :: total energy             -56.922811401370 Eh    ::
         :: gradient norm              0.000378378405 Eh/a0 ::
         :: HOMO-LUMO gap              2.085061379183 eV    ::
         ::.................................................::
         :: SCC energy               -57.560197949284 Eh    ::
         :: -> isotropic ES            0.083030952723 Eh    ::
         :: -> anisotropic ES         -0.000388991161 Eh    ::
         :: -> anisotropic XC          0.021017769134 Eh    ::
         :: -> dispersion             -0.033252719617 Eh    ::
         :: repulsion energy           0.637386547914 Eh    ::
         :: add. restraining           0.000000000000 Eh    ::
         :: total charge               0.000000000000 e     ::
         :::::::::::::::::::::::::::::::::::::::::::::::::::::

           -------------------------------------------------
          |                Property Printout                |
           -------------------------------------------------

    * Orbital Energies and Occupations

         #    Occupation            Energy/Eh            Energy/eV
      -------------------------------------------------------------
         1        2.0000           -1.0713052             -29.1517
       ...           ...                  ...                  ...
        37        2.0000           -0.4788669             -13.0306
        38        2.0000           -0.4721345             -12.8474
        39        2.0000           -0.4708375             -12.8121
        40        2.0000           -0.4690001             -12.7621
        41        2.0000           -0.4572991             -12.4437
        42        2.0000           -0.4449922             -12.1089
        43        2.0000           -0.4372783             -11.8989
        44        2.0000           -0.4344276             -11.8214
        45        2.0000           -0.4333781             -11.7928
        46        2.0000           -0.4305576             -11.7161
        47        2.0000           -0.4265503             -11.6070
        48        2.0000           -0.4105187             -11.1708
        49        2.0000           -0.3837443             -10.4422 (HOMO)
        50                         -0.3071197              -8.3572 (LUMO)
        51                         -0.2826269              -7.6907
        52                         -0.2630243              -7.1573
        53                         -0.2516145              -6.8468
        54                         -0.2413387              -6.5672
        55                         -0.1634067              -4.4465
        56                         -0.1608137              -4.3760
        57                         -0.1452945              -3.9537
        58                         -0.1219315              -3.3179
        59                         -0.0060657              -0.1651
        60                          0.0005548               0.0151
       ...                                ...                  ...
        94                          0.6543550              17.8059
      -------------------------------------------------------------
                  HL-Gap            0.0766246 Eh            2.0851 eV
             Fermi-level           -0.3454320 Eh           -9.3997 eV

     #   Z          covCN         q      C6AA      α(0)
     1   7 N        1.844    -0.231    26.911     7.688
     2   6 C        2.970     0.093    25.921     8.351
     3   6 C        2.863     0.126    25.233     8.234
     4   6 C        2.984     0.074    26.337     8.418
     5   7 N        1.837    -0.218    26.583     7.641
     6   6 C        2.909     0.144    24.860     8.176
     7   6 C        2.694     0.371    20.706     7.447
     8   8 O        0.856    -0.369    21.078     6.155
     9   8 O        1.660    -0.364    20.160     6.061
    10   8 O        1.703    -0.292    18.855     5.863
    11   6 C        3.650     0.037    20.271     6.467
    12   6 C        2.980     0.012    27.733     8.638
    13   6 C        2.924    -0.028    28.708     8.787
    14   6 C        2.955    -0.037    28.926     8.822
    15   6 C        2.917     0.091    25.972     8.357
    16   6 C        2.917     0.089    26.024     8.365
    17   6 C        2.961    -0.041    29.017     8.836
    18  17 Cl       0.989    -0.137   103.441    15.560
    19  17 Cl       0.988    -0.131   103.237    15.545
    20   1 H        0.925     0.068     2.113     2.273
    21   1 H        0.804     0.338     0.616     1.233
    22   1 H        0.924     0.040     2.451     2.448
    23   1 H        0.924     0.049     2.329     2.386
    24   1 H        0.925     0.073     2.058     2.244
    25   1 H        0.926     0.080     1.980     2.200
    26   1 H        0.926     0.076     2.021     2.223
    27   1 H        0.926     0.087     1.912     2.162

 Mol. C6AA /au·bohr⁶  :      13393.306668
 Mol. C8AA /au·bohr⁸  :     365691.644546
 Mol. α(0) /au        :        180.580018


Wiberg/Mayer (AO) data.
largest (>0.10) Wiberg bond orders for each atom

 ---------------------------------------------------------------------------
     #   Z sym  total        # sym  WBO       # sym  WBO       # sym  WBO
 ---------------------------------------------------------------------------
     1   7 N    3.068 --     6 C    1.444     2 C    1.384
     2   6 C    3.978 --     1 N    1.384     3 C    1.314    12 C    1.054
     3   6 C    3.946 --     4 C    1.352     2 C    1.314    10 O    1.036
                             6 C    0.101
     4   6 C    3.979 --     5 N    1.416     3 C    1.352     7 C    0.939
     5   7 N    3.060 --     4 C    1.416     6 C    1.413
     6   6 C    3.964 --     1 N    1.444     5 N    1.413    20 H    0.953
                             3 C    0.101
     7   6 C    3.921 --     8 O    1.794     9 O    1.142     4 C    0.939
     8   8 O    2.078 --     7 C    1.794     9 O    0.186
     9   8 O    2.215 --     7 C    1.142    21 H    0.859     8 O    0.186
    10   8 O    2.145 --     3 C    1.036    11 C    0.956
    11   6 C    3.934 --    23 H    0.979    24 H    0.979    22 H    0.977
                            10 O    0.956
    12   6 C    3.988 --    17 C    1.380    13 C    1.368     2 C    1.054
    13   6 C    3.986 --    14 C    1.458    12 C    1.368    25 H    0.962
    14   6 C    3.985 --    13 C    1.458    15 C    1.389    26 H    0.964
    15   6 C    3.921 --    14 C    1.389    16 C    1.352    19 Cl   1.004
    16   6 C    3.927 --    17 C    1.413    15 C    1.352    18 Cl   0.997
    17   6 C    3.983 --    16 C    1.413    12 C    1.380    27 H    0.959
    18  17 Cl   1.145 --    16 C    0.997
    19  17 Cl   1.153 --    15 C    1.004
    20   1 H    0.995 --     6 C    0.953
    21   1 H    0.885 --     9 O    0.859
    22   1 H    0.998 --    11 C    0.977
    23   1 H    0.998 --    11 C    0.979
    24   1 H    0.994 --    11 C    0.979
    25   1 H    0.993 --    13 C    0.962
    26   1 H    0.994 --    14 C    0.964
    27   1 H    0.992 --    17 C    0.959
 ---------------------------------------------------------------------------

Topologies differ in total number of bonds
Writing topology from bond orders to xtbtopo.mol

molecular dipole:
                 x           y           z       tot (Debye)
 q only:       -0.078      -0.249       1.492
   full:        0.114      -0.891       1.269       3.953
molecular quadrupole (traceless):
                xx          xy          yy          xz          yz          zz
 q only:       -6.627      18.440       6.750       4.379      -9.245      -0.123
  q+dip:       -2.028      13.934       6.566       0.835      -3.944      -4.538
   full:       -4.785      13.958       7.363      -0.847      -6.181      -2.578

           -------------------------------------------------
          |                Geometry Summary                 |
           -------------------------------------------------

      molecular mass/u    :      299.1098531
   center of mass at/Å    :        1.8334209      -2.1158576      -0.3776619
  moments of inertia/u·Å² :        0.7134152E+03   0.3200461E+04   0.3647899E+04
rotational constants/cm⁻¹ :        0.2362948E-01   0.5267251E-02   0.4621190E-02

 * 26 selected distances

     #   Z          #   Z                                           value/Å
     1   7 N        2   6 C                                       1.3326450
     2   6 C        3   6 C                                       1.4083326
     3   6 C        4   6 C                                       1.3996152
     4   6 C        5   7 N                                       1.3241751
     1   7 N        6   6 C                                       1.3147195
     5   7 N        6   6 C                                       1.3201855
     7   6 C        8   8 O                                       1.1959882
     7   6 C        9   8 O                                       1.3350149
     3   6 C       10   8 O                                       1.3681292
    10   8 O       11   6 C                                       1.4181494
    12   6 C       13   6 C                                       1.3946955
    13   6 C       14   6 C                                       1.3797251
    14   6 C       15   6 C                                       1.3886392
    15   6 C       16   6 C                                       1.3938829
    12   6 C       17   6 C                                       1.3932418
    16   6 C       17   6 C                                       1.3841293
    16   6 C       18  17 Cl                                      1.7229298 (max)
    15   6 C       19  17 Cl                                      1.7195400
     6   6 C       20   1 H                                       1.0813416
     9   8 O       21   1 H                                       0.9715979 (min)
    11   6 C       22   1 H                                       1.0932464
    11   6 C       23   1 H                                       1.0943549
    11   6 C       24   1 H                                       1.0876826
    13   6 C       25   1 H                                       1.0779719
    14   6 C       26   1 H                                       1.0783780
    17   6 C       27   1 H                                       1.0786411

 * 6 distinct bonds (by element types)

   Z      Z             #   av. dist./Å        max./Å        min./Å
   1 H    6 C           7     1.0845167     1.0943549     1.0779719
   6 C    6 C           8     1.3927827     1.4083326     1.3797251
   6 C    7 N           4     1.3229313     1.3326450     1.3147195
   1 H    8 O           1     0.9715979     0.9715979     0.9715979
   6 C    8 O           4     1.3293204     1.4181494     1.1959882
   6 C   17 Cl          2     1.7212349     1.7229298     1.7195400


optimized geometry written to: xtbopt.xyz


           -------------------------------------------------
          | TOTAL ENERGY              -56.922811401370 Eh   |
          | GRADIENT NORM               0.000378378405 Eh/α |
          | HOMO-LUMO GAP               2.085061379183 eV   |
           -------------------------------------------------

------------------------------------------------------------------------
 * finished run on 2024/12/17 at 14:08:17.115     
------------------------------------------------------------------------
 total:
 * wall-time:     0 d,  0 h,  0 min,  0.522 sec
 *  cpu-time:     0 d,  0 h,  0 min,  4.072 sec
 * ratio c/w:     7.806 speedup
 SCF:
 * wall-time:     0 d,  0 h,  0 min,  0.039 sec
 *  cpu-time:     0 d,  0 h,  0 min,  0.289 sec
 * ratio c/w:     7.437 speedup
 ANC optimizer:
 * wall-time:     0 d,  0 h,  0 min,  0.465 sec
 *  cpu-time:     0 d,  0 h,  0 min,  3.651 sec
 * ratio c/w:     7.860 speedup

